[Molden Format]
[N_Atoms]
                    1
[Atoms] (AU)
DY          1     66           0.00000000      0.00000000      0.00000000
[5D]
[7F]
[9G]
[Charge] (Mulliken)
   2.9999999999995310     
[GTO] (AU)
   1
   s  25
  4.870342400E+07  5.106200060E-04
  9.835905780E+06  9.163900109E-04
  2.507419330E+06  2.369820028E-03
  7.201072910E+05  5.041510060E-03
  2.279151880E+05  1.090246013E-02
  7.797204540E+04  2.261548027E-02
  2.849316370E+04  4.689622056E-02
  1.099420540E+04  9.576921113E-02
  4.432766590E+03  1.870280922E-01
  1.855935300E+03  3.105533237E-01
  8.041156280E+02  3.443994241E-01
  3.567172480E+02  1.618597319E-01
  1.635106110E+02  1.008270012E-02
  7.774687850E+01  3.244120038E-03
  3.786892640E+01 -2.486320029E-03
  1.881493640E+01  1.631380019E-03
  9.177360710E+00 -1.053110012E-03
  4.388145360E+00  6.297700075E-04
  2.004781950E+00 -2.343100028E-04
  7.515629000E-01  5.661000067E-05
  3.006251600E-01 -1.058900013E-04
  1.202500600E-01  4.483000053E-05
  4.810002000E-02 -9.080000108E-06
  1.924001000E-02  1.628000019E-05
  7.696000000E-03 -3.360000040E-06
   s  25
  4.870342400E+07 -1.867900010E-04
  9.835905780E+06 -3.357400018E-04
  2.507419330E+06 -8.700800046E-04
  7.201072910E+05 -1.858960010E-03
  2.279151880E+05 -4.049560022E-03
  7.797204540E+04 -8.504420045E-03
  2.849316370E+04 -1.802220010E-02
  1.099420540E+04 -3.819922020E-02
  4.432766590E+03 -8.005879043E-02
  1.855935300E+03 -1.517493908E-01
  8.041156280E+02 -2.118157911E-01
  3.567172480E+02 -6.452100034E-02
  1.635106110E+02  4.326183423E-01
  7.774687850E+01  5.746653031E-01
  3.786892640E+01  1.501970908E-01
  1.881493640E+01  5.876470031E-03
  9.177360710E+00 -1.112890006E-03
  4.388145360E+00  6.345400034E-04
  2.004781950E+00 -4.308700023E-04
  7.515629000E-01  2.159400011E-04
  3.006251600E-01 -1.146300006E-04
  1.202500600E-01  7.125000038E-05
  4.810002000E-02 -4.207000022E-05
  1.924001000E-02  1.783000009E-05
  7.696000000E-03 -5.370000029E-06
   s  25
  4.870342400E+07  8.714999993E-05
  9.835905780E+06  1.566899999E-04
  2.507419330E+06  4.061999997E-04
  7.201072910E+05  8.684099993E-04
  2.279151880E+05  1.894009999E-03
  7.797204540E+04  3.984899997E-03
  2.849316370E+04  8.474899994E-03
  1.099420540E+04  1.806637999E-02
  4.432766590E+03  3.831645997E-02
  1.855935300E+03  7.426100994E-02
  8.041156280E+02  1.082698999E-01
  3.567172480E+02  3.005413998E-02
  1.635106110E+02 -3.359775897E-01
  7.774687850E+01 -6.359042095E-01
  3.786892640E+01  8.114764994E-02
  1.881493640E+01  9.150081493E-01
  9.177360710E+00  3.207941098E-01
  4.388145360E+00  4.865769996E-03
  2.004781950E+00  3.763439997E-03
  7.515629000E-01 -1.424499999E-03
  3.006251600E-01  5.764799996E-04
  1.202500600E-01 -3.844899997E-04
  4.810002000E-02  2.226899998E-04
  1.924001000E-02 -9.190999993E-05
  7.696000000E-03  2.815999998E-05
   s  25
  4.870342400E+07 -4.197000026E-05
  9.835905780E+06 -7.546000047E-05
  2.507419330E+06 -1.956300012E-04
  7.201072910E+05 -4.183500026E-04
  2.279151880E+05 -9.124600057E-04
  7.797204540E+04 -1.921420012E-03
  2.849316370E+04 -4.086670026E-03
  1.099420540E+04 -8.734290055E-03
  4.432766590E+03 -1.853919012E-02
  1.855935300E+03 -3.622926023E-02
  8.041156280E+02 -5.306712033E-02
  3.567172480E+02 -1.505805009E-02
  1.635106110E+02  1.842716112E-01
  7.774687850E+01  3.736171623E-01
  3.786892640E+01 -6.359666040E-02
  1.881493640E+01 -1.042274617E+00
  9.177360710E+00 -2.533186116E-01
  4.388145360E+00  1.077600007E+00
  2.004781950E+00  4.115180326E-01
  7.515629000E-01 -2.656580017E-03
  3.006251600E-01  7.429100046E-03
  1.202500600E-01 -3.846150024E-03
  4.810002000E-02  2.037170013E-03
  1.924001000E-02 -1.033990006E-03
  7.696000000E-03  2.903000018E-04
   s  25
  4.870342400E+07  1.622999998E-05
  9.835905780E+06  2.916999997E-05
  2.507419330E+06  7.563999993E-05
  7.201072910E+05  1.617199998E-04
  2.279151880E+05  3.528899997E-04
  7.797204540E+04  7.426299993E-04
  2.849316370E+04  1.581599998E-03
  1.099420540E+04  3.374699997E-03
  4.432766590E+03  7.186649993E-03
  1.855935300E+03  1.399716999E-02
  8.041156280E+02  2.070125998E-02
  3.567172480E+02  5.521519995E-03
  1.635106110E+02 -7.218751993E-02
  7.774687850E+01 -1.534322398E-01
  3.786892640E+01  3.339436997E-02
  1.881493640E+01  4.756141795E-01
  9.177360710E+00  1.320086199E-01
  4.388145360E+00 -8.180834892E-01
  2.004781950E+00 -4.103322396E-01
  7.515629000E-01  9.165209691E-01
  3.006251600E-01  4.835078695E-01
  1.202500600E-01 -1.942042998E-02
  4.810002000E-02  4.117363996E-02
  1.924001000E-02 -2.270569998E-03
  7.696000000E-03  2.310499998E-03
   s  25
  4.870342400E+07 -4.770000012E-06
  9.835905780E+06 -8.580000022E-06
  2.507419330E+06 -2.224000006E-05
  7.201072910E+05 -4.754000012E-05
  2.279151880E+05 -1.037600003E-04
  7.797204540E+04 -2.182900006E-04
  2.849316370E+04 -4.650900012E-04
  1.099420540E+04 -9.917900025E-04
  4.432766590E+03 -2.114190005E-03
  1.855935300E+03 -4.112300011E-03
  8.041156280E+02 -6.099000016E-03
  3.567172480E+02 -1.593670004E-03
  1.635106110E+02  2.120503005E-02
  7.774687850E+01  4.557852012E-02
  3.786892640E+01 -1.049085003E-02
  1.881493640E+01 -1.420310104E-01
  9.177360710E+00 -4.203827011E-02
  4.388145360E+00  2.653942507E-01
  2.004781950E+00  1.362606803E-01
  7.515629000E-01 -3.810689810E-01
  3.006251600E-01 -4.308519011E-01
  1.202500600E-01  2.260446906E-01
  4.810002000E-02  8.025413021E-01
  1.924001000E-02  2.356626306E-01
  7.696000000E-03 -6.034350015E-03
   s  25
  4.870342400E+07  1.314999998E-05
  9.835905780E+06  2.362999996E-05
  2.507419330E+06  6.130999991E-05
  7.201072910E+05  1.309099998E-04
  2.279151880E+05  2.863899996E-04
  7.797204540E+04  6.000599991E-04
  2.849316370E+04  1.287609998E-03
  1.099420540E+04  2.716049996E-03
  4.432766590E+03  5.888479991E-03
  1.855935300E+03  1.117731998E-02
  8.041156280E+02  1.734778997E-02
  3.567172480E+02  2.981129995E-03
  1.635106110E+02 -5.524759992E-02
  7.774687850E+01 -1.378189398E-01
  3.786892640E+01  5.257393992E-02
  1.881493640E+01  3.803899094E-01
  9.177360710E+00  1.917614097E-01
  4.388145360E+00 -1.183604128E+00
  2.004781950E+00  3.846638594E-01
  7.515629000E-01  1.185508738E+00
  3.006251600E-01 -4.434025293E-01
  1.202500600E-01 -1.072547278E+00
  4.810002000E-02 -1.323977298E-01
  1.924001000E-02  1.080740748E+00
  7.696000000E-03 -6.909286990E-02
   p  22
  6.873747250E+06  2.666000004E-05
  1.057919640E+06  8.947000013E-05
  2.241199650E+05  2.963400004E-04
  5.759048690E+04  9.671900014E-04
  1.723095460E+04  3.203830005E-03
  5.880064300E+03  1.059206002E-02
  2.242725240E+03  3.382242005E-02
  9.334908860E+02  9.775736014E-02
  4.142309480E+02  2.308647403E-01
  1.919365240E+02  3.809861906E-01
  9.162212740E+01  3.329301705E-01
  4.386114280E+01  1.008537501E-01
  2.154527450E+01  2.737070004E-03
  1.054691120E+01  1.265680002E-03
  5.011103500E+00 -7.527400011E-04
  2.302201890E+00  3.142700005E-04
  1.006158090E+00 -1.585800002E-04
  4.024632300E-01  7.634000011E-05
  1.609852900E-01 -4.221000006E-05
  6.439411000E-02  2.262000003E-05
  2.575764000E-02 -1.084000002E-05
  1.030306000E-02  3.440000005E-06
   p  22
  6.873747250E+06 -1.321999992E-05
  1.057919640E+06 -4.440999972E-05
  2.241199650E+05 -1.473599991E-04
  5.759048690E+04 -4.824799970E-04
  1.723095460E+04 -1.605799990E-03
  5.880064300E+03 -5.354099966E-03
  2.242725240E+03 -1.734905989E-02
  9.334908860E+02 -5.162289967E-02
  4.142309480E+02 -1.276973292E-01
  1.919365240E+02 -2.238932586E-01
  9.162212740E+01 -1.524126390E-01
  4.386114280E+01  2.925126282E-01
  2.154527450E+01  6.030014262E-01
  1.054691120E+01  2.424946285E-01
  5.011103500E+00  1.405950991E-02
  2.302201890E+00  1.873689988E-03
  1.006158090E+00 -6.276599960E-04
  4.024632300E-01  3.202799980E-04
  1.609852900E-01 -1.684799989E-04
  6.439411000E-02  9.304999941E-05
  2.575764000E-02 -4.438999972E-05
  1.030306000E-02  1.409999991E-05
   p  22
  6.873747250E+06  6.260000017E-06
  1.057919640E+06  2.105000006E-05
  2.241199650E+05  6.986000018E-05
  5.759048690E+04  2.289900006E-04
  1.723095460E+04  7.622400020E-04
  5.880064300E+03  2.549860007E-03
  2.242725240E+03  8.273710022E-03
  9.334908860E+02  2.484149007E-02
  4.142309480E+02  6.192917016E-02
  1.919365240E+02  1.107934703E-01
  9.162212740E+01  6.721320018E-02
  4.386114280E+01 -2.113486906E-01
  2.154527450E+01 -4.803163013E-01
  1.054691120E+01  5.368759014E-02
  5.011103500E+00  7.182538119E-01
  2.302201890E+00  3.777733710E-01
  1.006158090E+00  2.067059005E-02
  4.024632300E-01  4.781630013E-03
  1.609852900E-01 -2.172120006E-03
  6.439411000E-02  1.210560003E-03
  2.575764000E-02 -5.958800016E-04
  1.030306000E-02  1.899200005E-04
   p  22
  6.873747250E+06 -2.170000003E-06
  1.057919640E+06 -7.290000011E-06
  2.241199650E+05 -2.420000004E-05
  5.759048690E+04 -7.935000012E-05
  1.723095460E+04 -2.641800004E-04
  5.880064300E+03 -8.841700013E-04
  2.242725240E+03 -2.870330004E-03
  9.334908860E+02 -8.631380013E-03
  4.142309480E+02 -2.155795003E-02
  1.919365240E+02 -3.870530006E-02
  9.162212740E+01 -2.292433003E-02
  4.386114280E+01  7.942482012E-02
  2.154527450E+01  1.840366803E-01
  1.054691120E+01 -4.800893007E-02
  5.011103500E+00 -3.773496606E-01
  2.302201890E+00 -1.991823103E-01
  1.006158090E+00  4.969647307E-01
  4.024632300E-01  6.127468909E-01
  1.609852900E-01  1.091650102E-01
  6.439411000E-02  7.702420012E-03
  2.575764000E-02 -2.055050003E-03
  1.030306000E-02  8.393200013E-04
   p  22
  6.873747250E+06  1.740000004E-06
  1.057919640E+06  5.860000012E-06
  2.241199650E+05  1.948000004E-05
  5.759048690E+04  6.374000013E-05
  1.723095460E+04  2.128800004E-04
  5.880064300E+03  7.093600015E-04
  2.242725240E+03  2.316670005E-03
  9.334908860E+02  6.920820014E-03
  4.142309480E+02  1.744556004E-02
  1.919365240E+02  3.096556006E-02
  9.162212740E+01  1.903911004E-02
  4.386114280E+01 -6.706591014E-02
  2.154527450E+01 -1.512181003E-01
  1.054691120E+01  4.549055009E-02
  5.011103500E+00  3.783978208E-01
  2.302201890E+00  4.045255008E-02
  1.006158090E+00 -6.880439414E-01
  4.024632300E-01 -7.519176016E-02
  1.609852900E-01  4.991141710E-01
  6.439411000E-02  5.328648011E-01
  2.575764000E-02  6.155774013E-02
  1.030306000E-02  3.655000008E-04
   p  22
  6.873747250E+06 -3.099999990E-06
  1.057919640E+06 -1.040999997E-05
  2.241199650E+05 -3.464999989E-05
  5.759048690E+04 -1.130299996E-04
  1.723095460E+04 -3.796099988E-04
  5.880064300E+03 -1.255149996E-03
  2.242725240E+03 -4.141539987E-03
  9.334908860E+02 -1.222769996E-02
  4.142309480E+02 -3.130605990E-02
  1.919365240E+02 -5.443013983E-02
  9.162212740E+01 -3.563670989E-02
  4.386114280E+01  1.265289396E-01
  2.154527450E+01  2.722493591E-01
  1.054691120E+01 -9.403039970E-02
  5.011103500E+00 -8.328985174E-01
  2.302201890E+00  3.797399388E-01
  1.006158090E+00  1.230040746E+00
  4.024632300E-01 -1.200889086E+00
  1.609852900E-01 -3.351668689E-01
  6.439411000E-02  8.305753174E-01
  2.575764000E-02  7.822069975E-02
  1.030306000E-02  8.725899972E-03
   d  15
  4.432766590E+03  4.052899988E-04
  1.855935300E+03  1.321149996E-03
  8.041156280E+02  7.000519980E-03
  3.567172480E+02  2.979033991E-02
  1.635106110E+02  1.028519397E-01
  7.774687850E+01  2.533325493E-01
  3.786892640E+01  3.980798988E-01
  1.881493640E+01  3.260680491E-01
  9.177360710E+00  9.839078972E-02
  4.388145360E+00  5.222659985E-03
  2.004781950E+00  8.206799976E-04
  7.515629000E-01 -1.875299995E-04
  2.840915300E-01  1.087599997E-04
  8.929497000E-02 -3.807999989E-05
  3.571798000E-02  1.675999995E-05
   d  15
  4.432766590E+03 -1.946599988E-04
  1.855935300E+03 -6.243499962E-04
  8.041156280E+02 -3.384639979E-03
  3.567172480E+02 -1.434479991E-02
  1.635106110E+02 -5.084728969E-02
  7.774687850E+01 -1.255652292E-01
  3.786892640E+01 -1.920814288E-01
  1.881493640E+01 -7.116154957E-02
  9.177360710E+00  3.122344981E-01
  4.388145360E+00  5.169590168E-01
  2.004781950E+00  2.923592282E-01
  7.515629000E-01  4.017087975E-02
  2.840915300E-01 -2.578369984E-03
  8.929497000E-02  1.363559992E-03
  3.571798000E-02 -5.116699969E-04
   d  15
  4.432766590E+03  5.909999985E-05
  1.855935300E+03  1.736199996E-04
  8.041156280E+02  1.025409997E-03
  3.567172480E+02  4.113409990E-03
  1.635106110E+02  1.526329996E-02
  7.774687850E+01  3.622241991E-02
  3.786892640E+01  5.867512986E-02
  1.881493640E+01  1.177524997E-02
  9.177360710E+00 -1.029552697E-01
  4.388145360E+00 -2.084294195E-01
  2.004781950E+00  2.569029994E-02
  7.515629000E-01  4.498541889E-01
  2.840915300E-01  4.811048888E-01
  8.929497000E-02  2.508925094E-01
  3.571798000E-02  3.211637992E-02
   d  15
  4.432766590E+03 -8.239999990E-05
  1.855935300E+03 -2.032099998E-04
  8.041156280E+02 -1.420459998E-03
  3.567172480E+02 -5.123709994E-03
  1.635106110E+02 -2.064303998E-02
  7.774687850E+01 -4.540740995E-02
  3.786892640E+01 -8.302306990E-02
  1.881493640E+01 -7.413749991E-03
  9.177360710E+00  1.175278099E-01
  4.388145360E+00  3.694996096E-01
  2.004781950E+00 -2.170106797E-01
  7.515629000E-01 -8.173717290E-01
  2.840915300E-01  3.817970395E-01
  8.929497000E-02  5.787043193E-01
  3.571798000E-02  5.747732993E-02
   f  11
  1.919365240E+02  2.822639991E-03
  9.162212740E+01  1.054333997E-02
  4.386114280E+01  4.227739987E-02
  2.154527450E+01  1.152245796E-01
  1.054691120E+01  2.412876992E-01
  5.011103500E+00  3.364174789E-01
  2.302201890E+00  3.308958789E-01
  1.006158090E+00  2.340637193E-01
  4.063241500E-01  1.058853997E-01
  1.625296600E-01  1.641107995E-02
  6.501186000E-02 -2.047299993E-04
   f  11
  1.919365240E+02 -3.044799982E-03
  9.162212740E+01 -1.157444993E-02
  4.386114280E+01 -4.586564973E-02
  2.154527450E+01 -1.272673293E-01
  1.054691120E+01 -2.511835685E-01
  5.011103500E+00 -2.629891385E-01
  2.302201890E+00  2.145489987E-02
  1.006158090E+00  4.472806574E-01
  4.063241500E-01  4.266699175E-01
  1.625296600E-01  1.392654392E-01
  6.501186000E-02  1.908807989E-02
   g   4
  6.670112000E+00  2.489592580E-01
  2.668045000E+00  4.275506066E-01
  1.067218000E+00  4.863648161E-01
  4.268870000E-01  1.536425088E-01
 
[MO]
Sym=     1ag 
Ene= -1984.6000
Spin= Alpha
Occup=    2.00000
   1         1.00000000
   2         0.00000103
   3         0.00000570
   4        -0.00000221
   5         0.00005848
   6        -0.00001970
   7        -0.00000090
   8         0.00000000
   9         0.00000000
  10         0.00000000
  11         0.00000000
  12         0.00000000
  13         0.00000000
  14         0.00000000
  15         0.00000000
  16         0.00000000
  17         0.00000000
  18         0.00000000
  19         0.00000000
  20         0.00000000
  21         0.00000000
  22         0.00000000
  23         0.00000000
  24         0.00000000
  25         0.00000000
  26        -0.00000001
  27         0.00000000
  28        -0.00000000
  29        -0.00000000
  30         0.00000000
  31         0.00000000
  32        -0.00000000
  33         0.00000000
  34         0.00000000
  35         0.00000000
  36        -0.00000000
  37         0.00000000
  38        -0.00000000
  39         0.00000000
  40         0.00000000
  41         0.00000000
  42        -0.00000000
  43         0.00000000
  44         0.00000000
  45         0.00000000
  46         0.00000000
  47         0.00000000
  48         0.00000000
  49         0.00000000
  50         0.00000000
  51         0.00000000
  52         0.00000000
  53         0.00000000
  54         0.00000000
  55         0.00000000
  56         0.00000000
  57         0.00000000
  58         0.00000000
  59         0.00000000
  60        -0.00000000
  61        -0.00000000
  62        -0.00000000
  63        -0.00000000
  64        -0.00000000
  65         0.00000000
  66        -0.00000000
  67        -0.00000000
  68        -0.00000000
Sym=     2ag 
Ene=  -335.9200
Spin= Alpha
Occup=    2.00000
   1         0.00000103
   2        -1.00000000
   3        -0.00001915
   4         0.00001429
   5         0.00000452
   6        -0.00000188
   7        -0.00000312
   8         0.00000000
   9         0.00000000
  10         0.00000000
  11         0.00000000
  12         0.00000000
  13         0.00000000
  14         0.00000000
  15         0.00000000
  16         0.00000000
  17         0.00000000
  18         0.00000000
  19         0.00000000
  20         0.00000000
  21         0.00000000
  22         0.00000000
  23         0.00000000
  24         0.00000000
  25         0.00000000
  26        -0.00000093
  27        -0.00000000
  28         0.00000000
  29        -0.00000000
  30         0.00000000
  31         0.00000021
  32         0.00000000
  33        -0.00000000
  34         0.00000000
  35         0.00000000
  36        -0.00000006
  37        -0.00000000
  38         0.00000000
  39        -0.00000000
  40        -0.00000000
  41         0.00000008
  42        -0.00000000
  43         0.00000000
  44         0.00000000
  45         0.00000000
  46         0.00000000
  47         0.00000000
  48         0.00000000
  49         0.00000000
  50         0.00000000
  51         0.00000000
  52         0.00000000
  53         0.00000000
  54         0.00000000
  55         0.00000000
  56         0.00000000
  57         0.00000000
  58         0.00000000
  59         0.00000000
  60        -0.00000000
  61         0.00000000
  62         0.00000000
  63         0.00000000
  64        -0.00000000
  65         0.00000000
  66        -0.00000000
  67        -0.00000000
  68        -0.00000000
Sym=     3ag 
Ene=   -77.4030
Spin= Alpha
Occup=    2.00000
   1        -0.00000571
   2        -0.00001914
   3         0.99999999
   4         0.00012625
   5         0.00009648
   6        -0.00000666
   7        -0.00003130
   8         0.00000000
   9         0.00000000
  10         0.00000000
  11         0.00000000
  12         0.00000000
  13         0.00000000
  14         0.00000000
  15         0.00000000
  16         0.00000000
  17         0.00000000
  18         0.00000000
  19         0.00000000
  20         0.00000000
  21         0.00000000
  22         0.00000000
  23         0.00000000
  24         0.00000000
  25         0.00000000
  26         0.00003721
  27         0.00000000
  28        -0.00000000
  29         0.00000000
  30        -0.00000000
  31         0.00000345
  32         0.00000000
  33        -0.00000000
  34         0.00000000
  35         0.00000000
  36        -0.00000121
  37        -0.00000000
  38        -0.00000000
  39        -0.00000000
  40        -0.00000000
  41         0.00000173
  42         0.00000000
  43        -0.00000000
  44         0.00000000
  45        -0.00000000
  46         0.00000000
  47         0.00000000
  48         0.00000000
  49         0.00000000
  50         0.00000000
  51         0.00000000
  52         0.00000000
  53         0.00000000
  54         0.00000000
  55         0.00000000
  56         0.00000000
  57         0.00000000
  58         0.00000000
  59         0.00000000
  60        -0.00000001
  61        -0.00000000
  62        -0.00000000
  63        -0.00000000
  64         0.00000000
  65         0.00000000
  66        -0.00000000
  67        -0.00000000
  68        -0.00000000
Sym=     4ag 
Ene=   -50.2280
Spin= Alpha
Occup=    2.00000
   1        -0.00000001
   2         0.00000093
   3         0.00003721
   4        -0.00000309
   5         0.00000027
   6         0.00000005
   7         0.00000046
   8         0.00000000
   9         0.00000000
  10         0.00000000
  11         0.00000000
  12         0.00000000
  13         0.00000000
  14         0.00000000
  15         0.00000000
  16         0.00000000
  17         0.00000000
  18         0.00000000
  19         0.00000000
  20         0.00000000
  21         0.00000000
  22         0.00000000
  23         0.00000000
  24         0.00000000
  25         0.00000000
  26        -0.99999981
  27        -0.00000005
  28         0.00000000
  29         0.00000001
  30         0.00000000
  31        -0.00060296
  32        -0.00000000
  33         0.00000000
  34         0.00000000
  35         0.00000000
  36         0.00005882
  37         0.00000000
  38        -0.00000000
  39        -0.00000000
  40        -0.00000000
  41        -0.00005513
  42        -0.00000000
  43         0.00000000
  44         0.00000000
  45         0.00000000
  46         0.00000000
  47         0.00000000
  48         0.00000000
  49         0.00000000
  50         0.00000000
  51         0.00000000
  52         0.00000000
  53         0.00000000
  54         0.00000000
  55         0.00000000
  56         0.00000000
  57         0.00000000
  58         0.00000000
  59         0.00000000
  60        -0.00000102
  61        -0.00000000
  62         0.00000000
  63         0.00000000
  64        -0.00000000
  65        -0.00000000
  66        -0.00000000
  67        -0.00000000
  68         0.00000000
Sym=     5ag 
Ene=   -50.2280
Spin= Alpha
Occup=    2.00000
   1        -0.00000000
   2         0.00000000
   3         0.00000000
   4         0.00000000
   5        -0.00000000
   6         0.00000000
   7         0.00000000
   8         0.00000000
   9         0.00000000
  10         0.00000000
  11         0.00000000
  12         0.00000000
  13         0.00000000
  14         0.00000000
  15         0.00000000
  16         0.00000000
  17         0.00000000
  18         0.00000000
  19         0.00000000
  20         0.00000000
  21         0.00000000
  22         0.00000000
  23         0.00000000
  24         0.00000000
  25         0.00000000
  26        -0.00000005
  27         0.99999981
  28         0.00004697
  29         0.00000002
  30        -0.00000000
  31        -0.00000000
  32         0.00060632
  33         0.00000003
  34         0.00000000
  35        -0.00000000
  36         0.00000000
  37        -0.00005854
  38        -0.00000000
  39        -0.00000000
  40         0.00000000
  41        -0.00000000
  42         0.00005501
  43         0.00000000
  44         0.00000000
  45        -0.00000000
  46         0.00000000
  47         0.00000000
  48         0.00000000
  49         0.00000000
  50         0.00000000
  51         0.00000000
  52         0.00000000
  53         0.00000000
  54         0.00000000
  55         0.00000000
  56         0.00000000
  57         0.00000000
  58         0.00000000
  59         0.00000000
  60        -0.00000000
  61         0.00000113
  62         0.00000000
  63         0.00000000
  64        -0.00000000
  65         0.00000000
  66         0.00000000
  67        -0.00000000
  68         0.00000000
Sym=     6ag 
Ene=   -50.2280
Spin= Alpha
Occup=    2.00000
   1         0.00000000
   2        -0.00000000
   3        -0.00000000
   4        -0.00000000
   5         0.00000000
   6        -0.00000000
   7        -0.00000000
   8         0.00000000
   9         0.00000000
  10         0.00000000
  11         0.00000000
  12         0.00000000
  13         0.00000000
  14         0.00000000
  15         0.00000000
  16         0.00000000
  17         0.00000000
  18         0.00000000
  19         0.00000000
  20         0.00000000
  21         0.00000000
  22         0.00000000
  23         0.00000000
  24         0.00000000
  25         0.00000000
  26         0.00000000
  27        -0.00004697
  28         0.99999981
  29         0.00000000
  30         0.00000002
  31         0.00000000
  32        -0.00000003
  33         0.00060632
  34         0.00000000
  35         0.00000000
  36        -0.00000000
  37         0.00000000
  38        -0.00005854
  39        -0.00000000
  40        -0.00000000
  41         0.00000000
  42        -0.00000000
  43         0.00005501
  44         0.00000000
  45         0.00000000
  46         0.00000000
  47         0.00000000
  48         0.00000000
  49         0.00000000
  50         0.00000000
  51         0.00000000
  52         0.00000000
  53         0.00000000
  54         0.00000000
  55         0.00000000
  56         0.00000000
  57         0.00000000
  58         0.00000000
  59         0.00000000
  60         0.00000000
  61        -0.00000000
  62         0.00000113
  63         0.00000000
  64         0.00000000
  65         0.00000000
  66        -0.00000000
  67         0.00000000
  68         0.00000000
Sym=     7ag 
Ene=   -50.2270
Spin= Alpha
Occup=    2.00000
   1         0.00000000
   2        -0.00000000
   3        -0.00000000
   4         0.00000000
   5        -0.00000000
   6         0.00000000
   7        -0.00000000
   8         0.00000000
   9         0.00000000
  10         0.00000000
  11         0.00000000
  12         0.00000000
  13         0.00000000
  14         0.00000000
  15         0.00000000
  16         0.00000000
  17         0.00000000
  18         0.00000000
  19         0.00000000
  20         0.00000000
  21         0.00000000
  22         0.00000000
  23         0.00000000
  24         0.00000000
  25         0.00000000
  26         0.00000000
  27        -0.00000000
  28        -0.00000002
  29         0.13358911
  30         0.99103661
  31         0.00000000
  32        -0.00000000
  33        -0.00000000
  34         0.00008184
  35         0.00060710
  36        -0.00000000
  37         0.00000000
  38         0.00000000
  39        -0.00000762
  40        -0.00005657
  41         0.00000000
  42        -0.00000000
  43        -0.00000000
  44         0.00000715
  45         0.00005302
  46         0.00000000
  47         0.00000000
  48         0.00000000
  49         0.00000000
  50         0.00000000
  51         0.00000000
  52         0.00000000
  53         0.00000000
  54         0.00000000
  55         0.00000000
  56         0.00000000
  57         0.00000000
  58         0.00000000
  59         0.00000000
  60        -0.00000000
  61        -0.00000000
  62        -0.00000000
  63         0.00000013
  64         0.00000096
  65        -0.00000000
  66         0.00000000
  67         0.00000000
  68        -0.00000000
Sym=     8ag 
Ene=   -50.2270
Spin= Alpha
Occup=    2.00000
   1         0.00000000
   2        -0.00000000
   3        -0.00000000
   4         0.00000000
   5        -0.00000000
   6         0.00000000
   7        -0.00000000
   8         0.00000000
   9         0.00000000
  10         0.00000000
  11         0.00000000
  12         0.00000000
  13         0.00000000
  14         0.00000000
  15         0.00000000
  16         0.00000000
  17         0.00000000
  18         0.00000000
  19         0.00000000
  20         0.00000000
  21         0.00000000
  22         0.00000000
  23         0.00000000
  24         0.00000000
  25         0.00000000
  26         0.00000001
  27        -0.00000002
  28         0.00000000
  29         0.99103661
  30        -0.13358911
  31         0.00000000
  32        -0.00000000
  33         0.00000000
  34         0.00060710
  35        -0.00008184
  36        -0.00000000
  37         0.00000000
  38        -0.00000000
  39        -0.00005657
  40         0.00000762
  41         0.00000000
  42        -0.00000000
  43         0.00000000
  44         0.00005302
  45        -0.00000715
  46         0.00000000
  47         0.00000000
  48         0.00000000
  49         0.00000000
  50         0.00000000
  51         0.00000000
  52         0.00000000
  53         0.00000000
  54         0.00000000
  55         0.00000000
  56         0.00000000
  57         0.00000000
  58         0.00000000
  59         0.00000000
  60        -0.00000000
  61        -0.00000000
  62         0.00000000
  63         0.00000096
  64        -0.00000013
  65        -0.00000000
  66        -0.00000000
  67         0.00000000
  68         0.00000000
Sym=     9ag 
Ene=   -16.9320
Spin= Alpha
Occup=    2.00000
   1        -0.00000236
   2        -0.00001429
   3         0.00012605
   4        -0.99999743
   5         0.00218492
   6        -0.00038727
   7         0.00043839
   8         0.00000000
   9         0.00000000
  10         0.00000000
  11         0.00000000
  12         0.00000000
  13         0.00000000
  14         0.00000000
  15         0.00000000
  16         0.00000000
  17         0.00000000
  18         0.00000000
  19         0.00000000
  20         0.00000000
  21         0.00000000
  22         0.00000000
  23         0.00000000
  24         0.00000000
  25         0.00000000
  26         0.00000315
  27         0.00000000
  28        -0.00000000
  29         0.00000000
  30        -0.00000000
  31        -0.00009984
  32        -0.00000000
  33         0.00000000
  34        -0.00000000
  35        -0.00000000
  36         0.00003177
  37         0.00000000
  38        -0.00000000
  39         0.00000000
  40         0.00000000
  41        -0.00003146
  42        -0.00000000
  43         0.00000000
  44        -0.00000000
  45        -0.00000000
  46         0.00000000
  47         0.00000000
  48         0.00000000
  49         0.00000000
  50         0.00000000
  51         0.00000000
  52         0.00000000
  53         0.00000000
  54         0.00000000
  55         0.00000000
  56         0.00000000
  57         0.00000000
  58         0.00000000
  59         0.00000000
  60         0.00000075
  61         0.00000000
  62        -0.00000000
  63        -0.00000000
  64         0.00000000
  65         0.00000000
  66        -0.00000000
  67        -0.00000000
  68         0.00000000
Sym=    10ag 
Ene=    -7.3441
Spin= Alpha
Occup=    2.00000
   1        -0.00000000
   2         0.00000000
   3        -0.00000000
   4        -0.00000000
   5        -0.00000000
   6        -0.00000000
   7         0.00000000
   8         0.00000000
   9         0.00000000
  10         0.00000000
  11         0.00000000
  12         0.00000000
  13         0.00000000
  14         0.00000000
  15         0.00000000
  16         0.00000000
  17         0.00000000
  18         0.00000000
  19         0.00000000
  20         0.00000000
  21         0.00000000
  22         0.00000000
  23         0.00000000
  24         0.00000000
  25         0.00000000
  26        -0.00000000
  27         0.00000000
  28        -0.00000000
  29         0.00000194
  30        -0.00061293
  31         0.00000000
  32        -0.00000000
  33         0.00000001
  34        -0.00316255
  35         0.99998499
  36        -0.00000000
  37         0.00000000
  38        -0.00000000
  39         0.00001126
  40        -0.00356114
  41         0.00000000
  42        -0.00000000
  43         0.00000000
  44        -0.00000834
  45         0.00263803
  46         0.00000000
  47         0.00000000
  48         0.00000000
  49         0.00000000
  50         0.00000000
  51         0.00000000
  52         0.00000000
  53         0.00000000
  54         0.00000000
  55         0.00000000
  56         0.00000000
  57         0.00000000
  58         0.00000000
  59         0.00000000
  60        -0.00000000
  61        -0.00000000
  62        -0.00000000
  63         0.00000006
  64        -0.00002024
  65         0.00000000
  66         0.00000000
  67        -0.00000000
  68        -0.00000000
Sym=    11ag 
Ene=    -7.3441
Spin= Alpha
Occup=    2.00000
   1        -0.00000000
   2         0.00000000
   3         0.00000000
   4        -0.00000000
   5         0.00000000
   6         0.00000000
   7        -0.00000000
   8         0.00000000
   9         0.00000000
  10         0.00000000
  11         0.00000000
  12         0.00000000
  13         0.00000000
  14         0.00000000
  15         0.00000000
  16         0.00000000
  17         0.00000000
  18         0.00000000
  19         0.00000000
  20         0.00000000
  21         0.00000000
  22         0.00000000
  23         0.00000000
  24         0.00000000
  25         0.00000000
  26         0.00000000
  27        -0.00000000
  28        -0.00000000
  29        -0.00061293
  30        -0.00000194
  31        -0.00000002
  32         0.00000001
  33         0.00000000
  34         0.99998499
  35         0.00316255
  36         0.00000000
  37        -0.00000000
  38        -0.00000000
  39        -0.00356114
  40        -0.00001126
  41        -0.00000000
  42         0.00000000
  43         0.00000000
  44         0.00263803
  45         0.00000834
  46         0.00000000
  47         0.00000000
  48         0.00000000
  49         0.00000000
  50         0.00000000
  51         0.00000000
  52         0.00000000
  53         0.00000000
  54         0.00000000
  55         0.00000000
  56         0.00000000
  57         0.00000000
  58         0.00000000
  59         0.00000000
  60        -0.00000000
  61         0.00000000
  62        -0.00000000
  63        -0.00002024
  64        -0.00000006
  65        -0.00000000
  66         0.00000000
  67         0.00000000
  68        -0.00000000
Sym=    12ag 
Ene=    -7.3437
Spin= Alpha
Occup=    2.00000
   1        -0.00000000
   2         0.00000000
   3        -0.00000000
   4        -0.00000000
   5         0.00000000
   6         0.00000000
   7        -0.00000000
   8         0.00000000
   9         0.00000000
  10         0.00000000
  11         0.00000000
  12         0.00000000
  13         0.00000000
  14         0.00000000
  15         0.00000000
  16         0.00000000
  17         0.00000000
  18         0.00000000
  19         0.00000000
  20         0.00000000
  21         0.00000000
  22         0.00000000
  23         0.00000000
  24         0.00000000
  25         0.00000000
  26         0.00000000
  27        -0.00001238
  28         0.00060656
  29        -0.00000000
  30        -0.00000000
  31        -0.00000000
  32         0.02041113
  33        -0.99978061
  34         0.00000000
  35         0.00000001
  36         0.00000000
  37        -0.00007667
  38         0.00375543
  39        -0.00000000
  40        -0.00000000
  41        -0.00000000
  42         0.00005643
  43        -0.00276427
  44         0.00000000
  45         0.00000000
  46         0.00000000
  47         0.00000000
  48         0.00000000
  49         0.00000000
  50         0.00000000
  51         0.00000000
  52         0.00000000
  53         0.00000000
  54         0.00000000
  55         0.00000000
  56         0.00000000
  57         0.00000000
  58         0.00000000
  59         0.00000000
  60        -0.00000000
  61        -0.00000077
  62         0.00003760
  63        -0.00000000
  64        -0.00000000
  65         0.00000000
  66         0.00000000
  67        -0.00000000
  68        -0.00000000
Sym=    13ag 
Ene=    -7.3437
Spin= Alpha
Occup=    2.00000
   1         0.00000000
   2         0.00000000
   3        -0.00000000
   4        -0.00000000
   5        -0.00000000
   6        -0.00000000
   7         0.00000000
   8         0.00000000
   9         0.00000000
  10         0.00000000
  11         0.00000000
  12         0.00000000
  13         0.00000000
  14         0.00000000
  15         0.00000000
  16         0.00000000
  17         0.00000000
  18         0.00000000
  19         0.00000000
  20         0.00000000
  21         0.00000000
  22         0.00000000
  23         0.00000000
  24         0.00000000
  25         0.00000000
  26        -0.00000000
  27        -0.00060656
  28        -0.00001238
  29         0.00000000
  30         0.00000000
  31         0.00000010
  32         0.99978061
  33         0.02041113
  34        -0.00000001
  35        -0.00000000
  36        -0.00000000
  37        -0.00375543
  38        -0.00007667
  39         0.00000000
  40         0.00000000
  41         0.00000000
  42         0.00276427
  43         0.00005643
  44        -0.00000000
  45        -0.00000000
  46         0.00000000
  47         0.00000000
  48         0.00000000
  49         0.00000000
  50         0.00000000
  51         0.00000000
  52         0.00000000
  53         0.00000000
  54         0.00000000
  55         0.00000000
  56         0.00000000
  57         0.00000000
  58         0.00000000
  59         0.00000000
  60        -0.00000000
  61        -0.00003760
  62        -0.00000077
  63         0.00000000
  64        -0.00000000
  65         0.00000000
  66        -0.00000000
  67        -0.00000000
  68         0.00000000
Sym=    14ag 
Ene=    -7.3435
Spin= Alpha
Occup=    2.00000
   1        -0.00000001
   2        -0.00000021
   3         0.00000340
   4         0.00010061
   5         0.00026310
   6         0.00001520
   7        -0.00001918
   8         0.00000000
   9         0.00000000
  10         0.00000000
  11         0.00000000
  12         0.00000000
  13         0.00000000
  14         0.00000000
  15         0.00000000
  16         0.00000000
  17         0.00000000
  18         0.00000000
  19         0.00000000
  20         0.00000000
  21         0.00000000
  22         0.00000000
  23         0.00000000
  24         0.00000000
  25         0.00000000
  26         0.00060333
  27        -0.00000000
  28        -0.00000000
  29         0.00000000
  30        -0.00000000
  31        -0.99998842
  32         0.00000010
  33         0.00000000
  34        -0.00000002
  35         0.00000000
  36         0.00384997
  37        -0.00000000
  38        -0.00000000
  39         0.00000000
  40        -0.00000000
  41        -0.00280961
  42         0.00000000
  43         0.00000000
  44        -0.00000000
  45         0.00000000
  46         0.00000000
  47         0.00000000
  48         0.00000000
  49         0.00000000
  50         0.00000000
  51         0.00000000
  52         0.00000000
  53         0.00000000
  54         0.00000000
  55         0.00000000
  56         0.00000000
  57         0.00000000
  58         0.00000000
  59         0.00000000
  60         0.00004749
  61        -0.00000000
  62        -0.00000000
  63         0.00000000
  64         0.00000000
  65        -0.00000000
  66         0.00000000
  67        -0.00000000
  68        -0.00000000
Sym=    15ag 
Ene=    -2.9428
Spin= Alpha
Occup=    2.00000
   1        -0.00005928
   2         0.00000458
   3        -0.00009624
   4         0.00220945
   5         0.99866990
   6        -0.04641880
   7         0.02193401
   8         0.00000000
   9         0.00000000
  10         0.00000000
  11         0.00000000
  12         0.00000000
  13         0.00000000
  14         0.00000000
  15         0.00000000
  16         0.00000000
  17         0.00000000
  18         0.00000000
  19         0.00000000
  20         0.00000000
  21         0.00000000
  22         0.00000000
  23         0.00000000
  24         0.00000000
  25         0.00000000
  26        -0.00000014
  27         0.00000000
  28        -0.00000000
  29         0.00000000
  30         0.00000000
  31         0.00024508
  32        -0.00000000
  33         0.00000000
  34        -0.00000000
  35        -0.00000000
  36        -0.00419833
  37         0.00000000
  38        -0.00000000
  39         0.00000000
  40         0.00000000
  41         0.00021328
  42        -0.00000000
  43         0.00000000
  44        -0.00000000
  45        -0.00000000
  46         0.00000000
  47         0.00000000
  48         0.00000000
  49         0.00000000
  50         0.00000000
  51         0.00000000
  52         0.00000000
  53         0.00000000
  54         0.00000000
  55         0.00000000
  56         0.00000000
  57         0.00000000
  58         0.00000000
  59         0.00000000
  60        -0.00007933
  61        -0.00000000
  62         0.00000000
  63         0.00000000
  64        -0.00000000
  65         0.00000000
  66        -0.00000000
  67        -0.00000000
  68         0.00000000
Sym=    16ag 
Ene=    -0.3639
Spin= Alpha
Occup=    0.00000
   1         0.00001308
   2        -0.00000084
   3        -0.00000326
   4        -0.00029869
   5         0.03686680
   6         0.77993199
   7        -0.14130510
   8         0.00000000
   9         0.00000000
  10         0.00000000
  11         0.00000000
  12         0.00000000
  13         0.00000000
  14         0.00000000
  15         0.00000000
  16         0.00000000
  17         0.00000000
  18         0.00000000
  19         0.00000000
  20         0.00000000
  21         0.00000000
  22         0.00000000
  23         0.00000000
  24         0.00000000
  25         0.00000000
  26        -0.00002777
  27        -0.00000000
  28         0.00000000
  29         0.00000000
  30         0.00000000
  31        -0.00195999
  32        -0.00000000
  33         0.00000000
  34         0.00000000
  35         0.00000000
  36        -0.59797106
  37        -0.00000000
  38         0.00000000
  39         0.00000000
  40         0.00000000
  41        -0.11316260
  42         0.00000000
  43         0.00000000
  44         0.00000000
  45         0.00000000
  46         0.00000000
  47         0.00000000
  48         0.00000000
  49         0.00000000
  50         0.00000000
  51         0.00000000
  52         0.00000000
  53         0.00000000
  54         0.00000000
  55         0.00000000
  56         0.00000000
  57         0.00000000
  58         0.00000000
  59         0.00000000
  60         0.00084272
  61        -0.00000000
  62        -0.00000000
  63         0.00000000
  64        -0.00000000
  65        -0.00000000
  66         0.00000000
  67         0.00000000
  68         0.00000000
Sym=    17ag 
Ene=    -0.3599
Spin= Alpha
Occup=    0.00000
   1        -0.00000000
   2        -0.00000000
   3         0.00000000
   4         0.00000000
   5        -0.00000000
   6        -0.00000000
   7         0.00000000
   8         0.00000000
   9         0.00000000
  10         0.00000000
  11         0.00000000
  12         0.00000000
  13         0.00000000
  14         0.00000000
  15         0.00000000
  16         0.00000000
  17         0.00000000
  18         0.00000000
  19         0.00000000
  20         0.00000000
  21         0.00000000
  22         0.00000000
  23         0.00000000
  24         0.00000000
  25         0.00000000
  26         0.00000000
  27         0.00000000
  28         0.00000000
  29         0.00004545
  30         0.00000098
  31        -0.00000000
  32         0.00000000
  33         0.00000000
  34         0.00306930
  35         0.00006634
  36         0.00000000
  37         0.00000000
  38         0.00000000
  39         0.98568972
  40         0.02130528
  41         0.00000000
  42         0.00000000
  43         0.00000000
  44         0.16714883
  45         0.00361285
  46         0.00000000
  47         0.00000000
  48         0.00000000
  49         0.00000000
  50         0.00000000
  51         0.00000000
  52         0.00000000
  53         0.00000000
  54         0.00000000
  55         0.00000000
  56         0.00000000
  57         0.00000000
  58         0.00000000
  59         0.00000000
  60        -0.00000000
  61        -0.00000000
  62        -0.00000000
  63        -0.00080183
  64        -0.00001733
  65        -0.00000000
  66         0.00000000
  67         0.00000000
  68        -0.00000000
Sym=    18ag 
Ene=    -0.3599
Spin= Alpha
Occup=    0.00000
   1        -0.00000000
   2        -0.00000000
   3         0.00000000
   4         0.00000000
   5         0.00000000
   6         0.00000000
   7        -0.00000000
   8         0.00000000
   9         0.00000000
  10         0.00000000
  11         0.00000000
  12         0.00000000
  13         0.00000000
  14         0.00000000
  15         0.00000000
  16         0.00000000
  17         0.00000000
  18         0.00000000
  19         0.00000000
  20         0.00000000
  21         0.00000000
  22         0.00000000
  23         0.00000000
  24         0.00000000
  25         0.00000000
  26        -0.00000000
  27         0.00000000
  28        -0.00000000
  29         0.00000098
  30        -0.00004545
  31        -0.00000000
  32         0.00000000
  33        -0.00000000
  34         0.00006634
  35        -0.00306930
  36        -0.00000000
  37         0.00000000
  38        -0.00000000
  39         0.02130528
  40        -0.98568972
  41        -0.00000000
  42         0.00000000
  43        -0.00000000
  44         0.00361285
  45        -0.16714883
  46         0.00000000
  47         0.00000000
  48         0.00000000
  49         0.00000000
  50         0.00000000
  51         0.00000000
  52         0.00000000
  53         0.00000000
  54         0.00000000
  55         0.00000000
  56         0.00000000
  57         0.00000000
  58         0.00000000
  59         0.00000000
  60         0.00000000
  61         0.00000000
  62         0.00000000
  63        -0.00001733
  64         0.00080183
  65        -0.00000000
  66        -0.00000000
  67         0.00000000
  68         0.00000000
Sym=    19ag 
Ene=    -0.3340
Spin= Alpha
Occup=    0.00000
   1         0.00000000
   2         0.00000000
   3         0.00000000
   4         0.00000000
   5        -0.00000000
   6         0.00000000
   7        -0.00000000
   8         0.00000000
   9         0.00000000
  10         0.00000000
  11         0.00000000
  12         0.00000000
  13         0.00000000
  14         0.00000000
  15         0.00000000
  16         0.00000000
  17         0.00000000
  18         0.00000000
  19         0.00000000
  20         0.00000000
  21         0.00000000
  22         0.00000000
  23         0.00000000
  24         0.00000000
  25         0.00000000
  26         0.00000000
  27         0.00004767
  28         0.00000019
  29        -0.00000000
  30         0.00000000
  31         0.00000000
  32         0.00330059
  33         0.00001284
  34        -0.00000000
  35         0.00000000
  36         0.00000000
  37         0.98874660
  38         0.00384570
  39        -0.00000000
  40         0.00000000
  41        -0.00000000
  42         0.14950667
  43         0.00058150
  44        -0.00000000
  45         0.00000000
  46         0.00000000
  47         0.00000000
  48         0.00000000
  49         0.00000000
  50         0.00000000
  51         0.00000000
  52         0.00000000
  53         0.00000000
  54         0.00000000
  55         0.00000000
  56         0.00000000
  57         0.00000000
  58         0.00000000
  59         0.00000000
  60        -0.00000000
  61        -0.00137677
  62        -0.00000535
  63         0.00000000
  64        -0.00000000
  65         0.00000000
  66         0.00000000
  67        -0.00000000
  68         0.00000000
Sym=    20ag 
Ene=    -0.3340
Spin= Alpha
Occup=    0.00000
   1         0.00000000
   2         0.00000000
   3         0.00000000
   4         0.00000000
   5        -0.00000000
   6         0.00000000
   7        -0.00000000
   8         0.00000000
   9         0.00000000
  10         0.00000000
  11         0.00000000
  12         0.00000000
  13         0.00000000
  14         0.00000000
  15         0.00000000
  16         0.00000000
  17         0.00000000
  18         0.00000000
  19         0.00000000
  20         0.00000000
  21         0.00000000
  22         0.00000000
  23         0.00000000
  24         0.00000000
  25         0.00000000
  26        -0.00000000
  27         0.00000019
  28        -0.00004767
  29         0.00000000
  30         0.00000000
  31        -0.00000000
  32         0.00001284
  33        -0.00330059
  34         0.00000000
  35         0.00000000
  36        -0.00000000
  37         0.00384570
  38        -0.98874660
  39         0.00000000
  40         0.00000000
  41        -0.00000000
  42         0.00058150
  43        -0.14950667
  44         0.00000000
  45         0.00000000
  46         0.00000000
  47         0.00000000
  48         0.00000000
  49         0.00000000
  50         0.00000000
  51         0.00000000
  52         0.00000000
  53         0.00000000
  54         0.00000000
  55         0.00000000
  56         0.00000000
  57         0.00000000
  58         0.00000000
  59         0.00000000
  60        -0.00000000
  61        -0.00000535
  62         0.00137677
  63        -0.00000000
  64        -0.00000000
  65         0.00000000
  66        -0.00000000
  67        -0.00000000
  68        -0.00000000
Sym=    21ag 
Ene=    -0.2758
Spin= Alpha
Occup=    0.00000
   1         0.00000957
   2        -0.00000061
   3        -0.00000250
   4        -0.00018956
   5         0.03366744
   6         0.59178149
   7        -0.12952412
   8         0.00000000
   9         0.00000000
  10         0.00000000
  11         0.00000000
  12         0.00000000
  13         0.00000000
  14         0.00000000
  15         0.00000000
  16         0.00000000
  17         0.00000000
  18         0.00000000
  19         0.00000000
  20         0.00000000
  21         0.00000000
  22         0.00000000
  23         0.00000000
  24         0.00000000
  25         0.00000000
  26         0.00004127
  27        -0.00000000
  28         0.00000000
  29        -0.00000000
  30        -0.00000000
  31         0.00288818
  32        -0.00000000
  33         0.00000000
  34        -0.00000000
  35        -0.00000000
  36         0.79225316
  37        -0.00000000
  38         0.00000000
  39         0.00000000
  40         0.00000000
  41         0.06487667
  42        -0.00000000
  43         0.00000000
  44         0.00000000
  45         0.00000000
  46         0.00000000
  47         0.00000000
  48         0.00000000
  49         0.00000000
  50         0.00000000
  51         0.00000000
  52         0.00000000
  53         0.00000000
  54         0.00000000
  55         0.00000000
  56         0.00000000
  57         0.00000000
  58         0.00000000
  59         0.00000000
  60        -0.00150026
  61         0.00000000
  62         0.00000000
  63        -0.00000000
  64        -0.00000000
  65        -0.00000000
  66        -0.00000000
  67         0.00000000
  68        -0.00000000
Sym=    22ag 
Ene=     0.1584
Spin= Alpha
Occup=    0.00000
   1         0.00000533
   2        -0.00000347
   3         0.00003324
   4         0.00033134
   5        -0.01263566
   6         0.18892430
   7         0.98019872
   8         0.00000000
   9         0.00000000
  10         0.00000000
  11         0.00000000
  12         0.00000000
  13         0.00000000
  14         0.00000000
  15         0.00000000
  16         0.00000000
  17         0.00000000
  18         0.00000000
  19         0.00000000
  20         0.00000000
  21         0.00000000
  22         0.00000000
  23         0.00000000
  24         0.00000000
  25         0.00000000
  26         0.00000465
  27         0.00000000
  28        -0.00000000
  29         0.00000000
  30         0.00000000
  31         0.00022136
  32        -0.00000000
  33        -0.00000000
  34        -0.00000000
  35        -0.00000000
  36         0.02398832
  37         0.00000000
  38         0.00000000
  39         0.00000000
  40        -0.00000000
  41        -0.05275236
  42        -0.00000000
  43         0.00000000
  44        -0.00000000
  45        -0.00000000
  46         0.00000000
  47         0.00000000
  48         0.00000000
  49         0.00000000
  50         0.00000000
  51         0.00000000
  52         0.00000000
  53         0.00000000
  54         0.00000000
  55         0.00000000
  56         0.00000000
  57         0.00000000
  58         0.00000000
  59         0.00000000
  60         0.00007875
  61        -0.00000000
  62        -0.00000000
  63         0.00000000
  64         0.00000000
  65         0.00000000
  66        -0.00000000
  67        -0.00000000
  68         0.00000000
Sym=    23ag 
Ene=     0.5705
Spin= Alpha
Occup=    0.00000
   1        -0.00000000
   2         0.00000000
   3        -0.00000000
   4        -0.00000000
   5         0.00000000
   6        -0.00000000
   7         0.00000000
   8         0.00000000
   9         0.00000000
  10         0.00000000
  11         0.00000000
  12         0.00000000
  13         0.00000000
  14         0.00000000
  15         0.00000000
  16         0.00000000
  17         0.00000000
  18         0.00000000
  19         0.00000000
  20         0.00000000
  21         0.00000000
  22         0.00000000
  23         0.00000000
  24         0.00000000
  25         0.00000000
  26         0.00000000
  27        -0.00000000
  28         0.00000000
  29        -0.00005937
  30         0.00001077
  31         0.00000000
  32        -0.00000000
  33         0.00000000
  34        -0.00314501
  35         0.00057036
  36         0.00000000
  37        -0.00000000
  38         0.00000000
  39        -0.16449483
  40         0.02983197
  41        -0.00000000
  42         0.00000000
  43        -0.00000000
  44         0.97009749
  45        -0.17593212
  46         0.00000000
  47         0.00000000
  48         0.00000000
  49         0.00000000
  50         0.00000000
  51         0.00000000
  52         0.00000000
  53         0.00000000
  54         0.00000000
  55         0.00000000
  56         0.00000000
  57         0.00000000
  58         0.00000000
  59         0.00000000
  60         0.00000000
  61         0.00000000
  62        -0.00000000
  63         0.00017653
  64        -0.00003201
  65         0.00000000
  66         0.00000000
  67        -0.00000000
  68        -0.00000000
Sym=    24ag 
Ene=     0.5705
Spin= Alpha
Occup=    0.00000
   1         0.00000000
   2        -0.00000000
   3         0.00000000
   4         0.00000000
   5        -0.00000000
   6         0.00000000
   7        -0.00000000
   8         0.00000000
   9         0.00000000
  10         0.00000000
  11         0.00000000
  12         0.00000000
  13         0.00000000
  14         0.00000000
  15         0.00000000
  16         0.00000000
  17         0.00000000
  18         0.00000000
  19         0.00000000
  20         0.00000000
  21         0.00000000
  22         0.00000000
  23         0.00000000
  24         0.00000000
  25         0.00000000
  26        -0.00000000
  27         0.00000000
  28         0.00000000
  29         0.00001077
  30         0.00005937
  31        -0.00000000
  32         0.00000000
  33         0.00000000
  34         0.00057036
  35         0.00314501
  36        -0.00000000
  37         0.00000000
  38         0.00000000
  39         0.02983197
  40         0.16449483
  41         0.00000000
  42        -0.00000000
  43        -0.00000000
  44        -0.17593212
  45        -0.97009749
  46         0.00000000
  47         0.00000000
  48         0.00000000
  49         0.00000000
  50         0.00000000
  51         0.00000000
  52         0.00000000
  53         0.00000000
  54         0.00000000
  55         0.00000000
  56         0.00000000
  57         0.00000000
  58         0.00000000
  59         0.00000000
  60        -0.00000000
  61        -0.00000000
  62        -0.00000000
  63        -0.00003201
  64        -0.00017653
  65        -0.00000000
  66         0.00000000
  67         0.00000000
  68        -0.00000000
Sym=    25ag 
Ene=     0.5951
Spin= Alpha
Occup=    0.00000
   1        -0.00000000
   2         0.00000000
   3        -0.00000000
   4        -0.00000000
   5         0.00000000
   6         0.00000000
   7         0.00000000
   8         0.00000000
   9         0.00000000
  10         0.00000000
  11         0.00000000
  12         0.00000000
  13         0.00000000
  14         0.00000000
  15         0.00000000
  16         0.00000000
  17         0.00000000
  18         0.00000000
  19         0.00000000
  20         0.00000000
  21         0.00000000
  22         0.00000000
  23         0.00000000
  24         0.00000000
  25         0.00000000
  26        -0.00000000
  27        -0.00006115
  28         0.00000061
  29         0.00000000
  30        -0.00000000
  31        -0.00000000
  32        -0.00329521
  33         0.00003282
  34         0.00000000
  35        -0.00000000
  36        -0.00000000
  37        -0.14948954
  38         0.00148885
  39         0.00000000
  40        -0.00000000
  41         0.00000000
  42         0.98870764
  43        -0.00984707
  44        -0.00000000
  45         0.00000000
  46         0.00000000
  47         0.00000000
  48         0.00000000
  49         0.00000000
  50         0.00000000
  51         0.00000000
  52         0.00000000
  53         0.00000000
  54         0.00000000
  55         0.00000000
  56         0.00000000
  57         0.00000000
  58         0.00000000
  59         0.00000000
  60         0.00000000
  61         0.00016423
  62        -0.00000164
  63        -0.00000000
  64         0.00000000
  65        -0.00000000
  66         0.00000000
  67         0.00000000
  68         0.00000000
Sym=    26ag 
Ene=     0.5951
Spin= Alpha
Occup=    0.00000
   1         0.00000000
   2         0.00000000
   3         0.00000000
   4         0.00000000
   5         0.00000000
   6         0.00000000
   7         0.00000000
   8         0.00000000
   9         0.00000000
  10         0.00000000
  11         0.00000000
  12         0.00000000
  13         0.00000000
  14         0.00000000
  15         0.00000000
  16         0.00000000
  17         0.00000000
  18         0.00000000
  19         0.00000000
  20         0.00000000
  21         0.00000000
  22         0.00000000
  23         0.00000000
  24         0.00000000
  25         0.00000000
  26        -0.00000000
  27         0.00000061
  28         0.00006115
  29        -0.00000000
  30        -0.00000000
  31        -0.00000000
  32         0.00003282
  33         0.00329521
  34        -0.00000000
  35        -0.00000000
  36        -0.00000000
  37         0.00148885
  38         0.14948954
  39        -0.00000000
  40        -0.00000000
  41         0.00000000
  42        -0.00984707
  43        -0.98870764
  44         0.00000000
  45         0.00000000
  46         0.00000000
  47         0.00000000
  48         0.00000000
  49         0.00000000
  50         0.00000000
  51         0.00000000
  52         0.00000000
  53         0.00000000
  54         0.00000000
  55         0.00000000
  56         0.00000000
  57         0.00000000
  58         0.00000000
  59         0.00000000
  60         0.00000000
  61        -0.00000164
  62        -0.00016423
  63         0.00000000
  64         0.00000000
  65        -0.00000000
  66         0.00000000
  67        -0.00000000
  68         0.00000000
Sym=    27ag 
Ene=     0.6365
Spin= Alpha
Occup=    0.00000
   1         0.00000116
   2        -0.00000016
   3        -0.00000015
   4        -0.00003603
   5         0.00112009
   6         0.06044397
   7         0.04455921
   8         0.00000000
   9         0.00000000
  10         0.00000000
  11         0.00000000
  12         0.00000000
  13         0.00000000
  14         0.00000000
  15         0.00000000
  16         0.00000000
  17         0.00000000
  18         0.00000000
  19         0.00000000
  20         0.00000000
  21         0.00000000
  22         0.00000000
  23         0.00000000
  24         0.00000000
  25         0.00000000
  26        -0.00005961
  27         0.00000000
  28        -0.00000000
  29         0.00000000
  30         0.00000000
  31        -0.00323941
  32         0.00000000
  33        -0.00000000
  34         0.00000000
  35         0.00000000
  36        -0.11897393
  37         0.00000000
  38        -0.00000000
  39        -0.00000000
  40         0.00000000
  41         0.99004770
  42        -0.00000000
  43         0.00000000
  44         0.00000000
  45        -0.00000000
  46         0.00000000
  47         0.00000000
  48         0.00000000
  49         0.00000000
  50         0.00000000
  51         0.00000000
  52         0.00000000
  53         0.00000000
  54         0.00000000
  55         0.00000000
  56         0.00000000
  57         0.00000000
  58         0.00000000
  59         0.00000000
  60         0.00000442
  61        -0.00000000
  62        -0.00000000
  63         0.00000000
  64         0.00000000
  65        -0.00000000
  66        -0.00000000
  67        -0.00000000
  68         0.00000000
Sym=    28ag 
Ene=     5.0053
Spin= Alpha
Occup=    0.00000
   1         0.00000000
   2        -0.00000000
   3         0.00000000
   4        -0.00000000
   5         0.00000000
   6        -0.00000000
   7         0.00000000
   8         0.00000000
   9         0.00000000
  10         0.00000000
  11         0.00000000
  12         0.00000000
  13         0.00000000
  14         0.00000000
  15         0.00000000
  16         0.00000000
  17         0.00000000
  18         0.00000000
  19         0.00000000
  20         0.00000000
  21         0.00000000
  22         0.00000000
  23         0.00000000
  24         0.00000000
  25         0.00000000
  26        -0.00000000
  27         0.00000000
  28        -0.00000000
  29        -0.00000000
  30        -0.00000000
  31        -0.00000000
  32         0.00000000
  33        -0.00000000
  34        -0.00000000
  35        -0.00000000
  36        -0.00000000
  37         0.00000000
  38         0.00000000
  39        -0.00000000
  40        -0.00000000
  41        -0.00000000
  42        -0.00000000
  43        -0.00000000
  44         0.00000000
  45         0.00000000
  46         0.00000000
  47         0.00000000
  48         0.00000000
  49         0.00000000
  50         0.00000000
  51         0.00000000
  52         0.00000000
  53         0.00000000
  54         0.00000000
  55         0.00000000
  56         0.00000000
  57         0.00000000
  58         0.00000000
  59         0.00000000
  60        -0.00000000
  61         0.00000000
  62         0.00000000
  63        -0.00000002
  64        -0.00000000
  65        -0.00000030
  66        -0.00000000
  67         1.00000000
  68        -0.00000000
Sym=    29ag 
Ene=     5.0053
Spin= Alpha
Occup=    0.00000
   1        -0.00000000
   2         0.00000000
   3         0.00000000
   4         0.00000000
   5         0.00000000
   6         0.00000000
   7        -0.00000000
   8         0.00000000
   9         0.00000000
  10         0.00000000
  11         0.00000000
  12         0.00000000
  13         0.00000000
  14         0.00000000
  15         0.00000000
  16         0.00000000
  17         0.00000000
  18         0.00000000
  19         0.00000000
  20         0.00000000
  21         0.00000000
  22         0.00000000
  23         0.00000000
  24         0.00000000
  25         0.00000000
  26        -0.00000000
  27        -0.00000000
  28        -0.00000000
  29        -0.00000000
  30         0.00000000
  31         0.00000000
  32         0.00000000
  33        -0.00000000
  34        -0.00000000
  35         0.00000000
  36         0.00000000
  37         0.00000000
  38         0.00000000
  39         0.00000000
  40         0.00000000
  41         0.00000000
  42         0.00000000
  43         0.00000000
  44         0.00000000
  45        -0.00000000
  46         0.00000000
  47         0.00000000
  48         0.00000000
  49         0.00000000
  50         0.00000000
  51         0.00000000
  52         0.00000000
  53         0.00000000
  54         0.00000000
  55         0.00000000
  56         0.00000000
  57         0.00000000
  58         0.00000000
  59         0.00000000
  60         0.00000003
  61         0.00000000
  62         0.00000005
  63         0.00000000
  64        -0.00000000
  65         0.00000000
  66        -0.00000015
  67         0.00000000
  68         1.00000000
Sym=    30ag 
Ene=     5.0086
Spin= Alpha
Occup=    0.00000
   1        -0.00000000
   2         0.00000000
   3        -0.00000000
   4         0.00000000
   5        -0.00000000
   6         0.00000000
   7        -0.00000000
   8         0.00000000
   9         0.00000000
  10         0.00000000
  11         0.00000000
  12         0.00000000
  13         0.00000000
  14         0.00000000
  15         0.00000000
  16         0.00000000
  17         0.00000000
  18         0.00000000
  19         0.00000000
  20         0.00000000
  21         0.00000000
  22         0.00000000
  23         0.00000000
  24         0.00000000
  25         0.00000000
  26         0.00000000
  27        -0.00000000
  28        -0.00000000
  29         0.00000000
  30        -0.00000000
  31        -0.00000000
  32        -0.00000000
  33         0.00000000
  34         0.00000000
  35         0.00000000
  36        -0.00000000
  37        -0.00000000
  38         0.00000000
  39         0.00000000
  40         0.00000000
  41        -0.00000000
  42         0.00000000
  43        -0.00000000
  44        -0.00000000
  45        -0.00000000
  46         0.00000000
  47         0.00000000
  48         0.00000000
  49         0.00000000
  50         0.00000000
  51         0.00000000
  52         0.00000000
  53         0.00000000
  54         0.00000000
  55         0.00000000
  56         0.00000000
  57         0.00000000
  58         0.00000000
  59         0.00000000
  60        -0.00000000
  61        -0.00000000
  62         0.00000000
  63         0.00000001
  64         0.00000000
  65         0.99999996
  66         0.00027361
  67         0.00000030
  68         0.00000000
Sym=    31ag 
Ene=     5.0086
Spin= Alpha
Occup=    0.00000
   1         0.00000000
   2         0.00000000
   3        -0.00000000
   4        -0.00000000
   5        -0.00000000
   6        -0.00000000
   7         0.00000000
   8         0.00000000
   9         0.00000000
  10         0.00000000
  11         0.00000000
  12         0.00000000
  13         0.00000000
  14         0.00000000
  15         0.00000000
  16         0.00000000
  17         0.00000000
  18         0.00000000
  19         0.00000000
  20         0.00000000
  21         0.00000000
  22         0.00000000
  23         0.00000000
  24         0.00000000
  25         0.00000000
  26         0.00000000
  27         0.00000000
  28        -0.00000000
  29        -0.00000000
  30         0.00000000
  31        -0.00000000
  32        -0.00000000
  33        -0.00000000
  34         0.00000000
  35         0.00000000
  36        -0.00000000
  37        -0.00000000
  38        -0.00000000
  39         0.00000000
  40         0.00000000
  41        -0.00000000
  42        -0.00000000
  43        -0.00000000
  44        -0.00000000
  45        -0.00000000
  46         0.00000000
  47         0.00000000
  48         0.00000000
  49         0.00000000
  50         0.00000000
  51         0.00000000
  52         0.00000000
  53         0.00000000
  54         0.00000000
  55         0.00000000
  56         0.00000000
  57         0.00000000
  58         0.00000000
  59         0.00000000
  60        -0.00000004
  61        -0.00000003
  62        -0.00000009
  63         0.00000000
  64         0.00000004
  65         0.00027361
  66        -0.99999996
  67         0.00000000
  68        -0.00000015
Sym=    32ag 
Ene=     5.0115
Spin= Alpha
Occup=    0.00000
   1         0.00000000
   2        -0.00000000
   3        -0.00000000
   4         0.00000000
   5         0.00000000
   6         0.00000000
   7        -0.00000000
   8         0.00000000
   9         0.00000000
  10         0.00000000
  11         0.00000000
  12         0.00000000
  13         0.00000000
  14         0.00000000
  15         0.00000000
  16         0.00000000
  17         0.00000000
  18         0.00000000
  19         0.00000000
  20         0.00000000
  21         0.00000000
  22         0.00000000
  23         0.00000000
  24         0.00000000
  25         0.00000000
  26        -0.00000000
  27         0.00000000
  28         0.00000000
  29        -0.00000000
  30         0.00000093
  31        -0.00000000
  32        -0.00000000
  33         0.00000000
  34         0.00000003
  35        -0.00002327
  36         0.00000000
  37        -0.00000000
  38        -0.00000000
  39         0.00000099
  40        -0.00082065
  41         0.00000000
  42        -0.00000000
  43        -0.00000000
  44        -0.00000005
  45         0.00004274
  46         0.00000000
  47         0.00000000
  48         0.00000000
  49         0.00000000
  50         0.00000000
  51         0.00000000
  52         0.00000000
  53         0.00000000
  54         0.00000000
  55         0.00000000
  56         0.00000000
  57         0.00000000
  58         0.00000000
  59         0.00000000
  60         0.00000000
  61        -0.00000002
  62        -0.00000001
  63         0.00120701
  64        -0.99999893
  65         0.00000000
  66        -0.00000004
  67        -0.00000000
  68        -0.00000000
Sym=    33ag 
Ene=     5.0115
Spin= Alpha
Occup=    0.00000
   1         0.00000000
   2         0.00000000
   3         0.00000000
   4        -0.00000000
   5        -0.00000000
   6         0.00000000
   7        -0.00000000
   8         0.00000000
   9         0.00000000
  10         0.00000000
  11         0.00000000
  12         0.00000000
  13         0.00000000
  14         0.00000000
  15         0.00000000
  16         0.00000000
  17         0.00000000
  18         0.00000000
  19         0.00000000
  20         0.00000000
  21         0.00000000
  22         0.00000000
  23         0.00000000
  24         0.00000000
  25         0.00000000
  26         0.00000000
  27        -0.00000000
  28         0.00000000
  29        -0.00000093
  30        -0.00000000
  31         0.00000000
  32        -0.00000000
  33        -0.00000000
  34         0.00002327
  35         0.00000003
  36         0.00000000
  37         0.00000000
  38        -0.00000000
  39         0.00082065
  40         0.00000099
  41        -0.00000000
  42         0.00000000
  43         0.00000000
  44        -0.00004274
  45        -0.00000005
  46         0.00000000
  47         0.00000000
  48         0.00000000
  49         0.00000000
  50         0.00000000
  51         0.00000000
  52         0.00000000
  53         0.00000000
  54         0.00000000
  55         0.00000000
  56         0.00000000
  57         0.00000000
  58         0.00000000
  59         0.00000000
  60         0.00000000
  61         0.00000000
  62        -0.00000000
  63         0.99999893
  64         0.00120701
  65        -0.00000001
  66         0.00000000
  67         0.00000002
  68        -0.00000000
Sym=    34ag 
Ene=     5.0136
Spin= Alpha
Occup=    0.00000
   1         0.00000000
   2        -0.00000000
   3        -0.00000000
   4         0.00000000
   5        -0.00000000
   6        -0.00000000
   7         0.00000000
   8         0.00000000
   9         0.00000000
  10         0.00000000
  11         0.00000000
  12         0.00000000
  13         0.00000000
  14         0.00000000
  15         0.00000000
  16         0.00000000
  17         0.00000000
  18         0.00000000
  19         0.00000000
  20         0.00000000
  21         0.00000000
  22         0.00000000
  23         0.00000000
  24         0.00000000
  25         0.00000000
  26         0.00000000
  27        -0.00000091
  28         0.00000057
  29         0.00000000
  30         0.00000000
  31        -0.00000000
  32         0.00003612
  33        -0.00002276
  34        -0.00000000
  35        -0.00000000
  36        -0.00000000
  37         0.00117240
  38        -0.00073870
  39        -0.00000000
  40        -0.00000000
  41        -0.00000000
  42         0.00003685
  43        -0.00002322
  44        -0.00000000
  45         0.00000000
  46         0.00000000
  47         0.00000000
  48         0.00000000
  49         0.00000000
  50         0.00000000
  51         0.00000000
  52         0.00000000
  53         0.00000000
  54         0.00000000
  55         0.00000000
  56         0.00000000
  57         0.00000000
  58         0.00000000
  59         0.00000000
  60        -0.00000003
  61         0.84606273
  62        -0.53308155
  63        -0.00000000
  64        -0.00000001
  65         0.00000000
  66         0.00000002
  67        -0.00000000
  68         0.00000003
Sym=    35ag 
Ene=     5.0136
Spin= Alpha
Occup=    0.00000
   1         0.00000000
   2        -0.00000000
   3        -0.00000000
   4        -0.00000000
   5        -0.00000000
   6        -0.00000000
   7         0.00000000
   8         0.00000000
   9         0.00000000
  10         0.00000000
  11         0.00000000
  12         0.00000000
  13         0.00000000
  14         0.00000000
  15         0.00000000
  16         0.00000000
  17         0.00000000
  18         0.00000000
  19         0.00000000
  20         0.00000000
  21         0.00000000
  22         0.00000000
  23         0.00000000
  24         0.00000000
  25         0.00000000
  26         0.00000000
  27        -0.00000057
  28        -0.00000091
  29         0.00000000
  30         0.00000000
  31        -0.00000000
  32         0.00002276
  33         0.00003612
  34        -0.00000000
  35        -0.00000000
  36        -0.00000000
  37         0.00073870
  38         0.00117240
  39        -0.00000000
  40        -0.00000000
  41        -0.00000000
  42         0.00002322
  43         0.00003685
  44        -0.00000000
  45         0.00000000
  46         0.00000000
  47         0.00000000
  48         0.00000000
  49         0.00000000
  50         0.00000000
  51         0.00000000
  52         0.00000000
  53         0.00000000
  54         0.00000000
  55         0.00000000
  56         0.00000000
  57         0.00000000
  58         0.00000000
  59         0.00000000
  60        -0.00000010
  61         0.53308155
  62         0.84606273
  63        -0.00000000
  64        -0.00000002
  65         0.00000000
  66        -0.00000009
  67        -0.00000000
  68        -0.00000004
Sym=    36ag 
Ene=     5.0144
Spin= Alpha
Occup=    0.00000
   1        -0.00000000
   2        -0.00000000
   3         0.00000000
   4         0.00000086
   5         0.00009964
   6         0.00021173
   7        -0.00015089
   8         0.00000000
   9         0.00000000
  10         0.00000000
  11         0.00000000
  12         0.00000000
  13         0.00000000
  14         0.00000000
  15         0.00000000
  16         0.00000000
  17         0.00000000
  18         0.00000000
  19         0.00000000
  20         0.00000000
  21         0.00000000
  22         0.00000000
  23         0.00000000
  24         0.00000000
  25         0.00000000
  26        -0.00000097
  27         0.00000000
  28        -0.00000000
  29         0.00000000
  30        -0.00000000
  31         0.00005349
  32         0.00000000
  33         0.00000000
  34         0.00000000
  35         0.00000000
  36         0.00169063
  37         0.00000000
  38         0.00000000
  39         0.00000000
  40         0.00000000
  41         0.00019263
  42         0.00000000
  43         0.00000000
  44        -0.00000000
  45        -0.00000000
  46         0.00000000
  47         0.00000000
  48         0.00000000
  49         0.00000000
  50         0.00000000
  51         0.00000000
  52         0.00000000
  53         0.00000000
  54         0.00000000
  55         0.00000000
  56         0.00000000
  57         0.00000000
  58         0.00000000
  59         0.00000000
  60         0.99999851
  61         0.00000008
  62         0.00000007
  63        -0.00000000
  64         0.00000000
  65         0.00000000
  66        -0.00000004
  67         0.00000000
  68        -0.00000003
Sym=     1au 
Ene=  -298.7300
Spin= Alpha
Occup=    2.00000
   1         0.00000000
   2         0.00000000
   3         0.00000000
   4         0.00000000
   5         0.00000000
   6         0.00000000
   7         0.00000000
   8        -0.00000003
   9        -0.00000000
  10        -1.00000000
  11        -0.00000000
  12        -0.00000000
  13        -0.00002280
  14         0.00000000
  15         0.00000000
  16         0.00001342
  17        -0.00000000
  18        -0.00000000
  19        -0.00000443
  20         0.00000000
  21         0.00000000
  22         0.00000199
  23        -0.00000000
  24        -0.00000000
  25        -0.00000345
  26         0.00000000
  27         0.00000000
  28         0.00000000
  29         0.00000000
  30         0.00000000
  31         0.00000000
  32         0.00000000
  33         0.00000000
  34         0.00000000
  35         0.00000000
  36         0.00000000
  37         0.00000000
  38         0.00000000
  39         0.00000000
  40         0.00000000
  41         0.00000000
  42         0.00000000
  43         0.00000000
  44         0.00000000
  45         0.00000000
  46         0.00000006
  47         0.00000000
  48         0.00000000
  49         0.00000000
  50        -0.00000000
  51         0.00000000
  52        -0.00000000
  53         0.00000009
  54         0.00000000
  55         0.00000000
  56        -0.00000000
  57         0.00000000
  58        -0.00000000
  59        -0.00000000
  60         0.00000000
  61         0.00000000
  62         0.00000000
  63         0.00000000
  64         0.00000000
  65         0.00000000
  66         0.00000000
  67         0.00000000
  68         0.00000000
Sym=     2au 
Ene=  -298.7300
Spin= Alpha
Occup=    2.00000
   1         0.00000000
   2         0.00000000
   3         0.00000000
   4         0.00000000
   5         0.00000000
   6         0.00000000
   7         0.00000000
   8         0.99999625
   9         0.00274017
  10        -0.00000003
  11         0.00002231
  12         0.00000006
  13        -0.00000000
  14        -0.00001330
  15        -0.00000004
  16         0.00000000
  17         0.00000443
  18         0.00000001
  19        -0.00000000
  20        -0.00000198
  21        -0.00000001
  22         0.00000000
  23         0.00000343
  24         0.00000001
  25        -0.00000000
  26         0.00000000
  27         0.00000000
  28         0.00000000
  29         0.00000000
  30         0.00000000
  31         0.00000000
  32         0.00000000
  33         0.00000000
  34         0.00000000
  35         0.00000000
  36         0.00000000
  37         0.00000000
  38         0.00000000
  39         0.00000000
  40         0.00000000
  41         0.00000000
  42         0.00000000
  43         0.00000000
  44         0.00000000
  45         0.00000000
  46         0.00000000
  47        -0.00000004
  48        -0.00000000
  49        -0.00000000
  50         0.00000000
  51        -0.00000000
  52         0.00000000
  53         0.00000000
  54        -0.00000008
  55        -0.00000000
  56         0.00000000
  57        -0.00000000
  58         0.00000000
  59        -0.00000000
  60         0.00000000
  61         0.00000000
  62         0.00000000
  63         0.00000000
  64         0.00000000
  65         0.00000000
  66         0.00000000
  67         0.00000000
  68         0.00000000
Sym=     3au 
Ene=  -298.7300
Spin= Alpha
Occup=    2.00000
   1         0.00000000
   2         0.00000000
   3         0.00000000
   4         0.00000000
   5         0.00000000
   6         0.00000000
   7         0.00000000
   8         0.00274017
   9        -0.99999625
  10         0.00000000
  11         0.00000006
  12        -0.00002231
  13         0.00000000
  14        -0.00000004
  15         0.00001330
  16        -0.00000000
  17         0.00000001
  18        -0.00000443
  19         0.00000000
  20        -0.00000001
  21         0.00000198
  22        -0.00000000
  23         0.00000001
  24        -0.00000343
  25         0.00000000
  26         0.00000000
  27         0.00000000
  28         0.00000000
  29         0.00000000
  30         0.00000000
  31         0.00000000
  32         0.00000000
  33         0.00000000
  34         0.00000000
  35         0.00000000
  36         0.00000000
  37         0.00000000
  38         0.00000000
  39         0.00000000
  40         0.00000000
  41         0.00000000
  42         0.00000000
  43         0.00000000
  44         0.00000000
  45         0.00000000
  46        -0.00000000
  47        -0.00000000
  48         0.00000004
  49        -0.00000000
  50         0.00000000
  51        -0.00000000
  52         0.00000000
  53         0.00000000
  54        -0.00000000
  55         0.00000008
  56         0.00000000
  57        -0.00000000
  58        -0.00000000
  59         0.00000000
  60         0.00000000
  61         0.00000000
  62         0.00000000
  63         0.00000000
  64         0.00000000
  65         0.00000000
  66         0.00000000
  67         0.00000000
  68         0.00000000
Sym=     4au 
Ene=   -65.6830
Spin= Alpha
Occup=    2.00000
   1         0.00000000
   2         0.00000000
   3         0.00000000
   4         0.00000000
   5         0.00000000
   6         0.00000000
   7         0.00000000
   8         0.00000000
   9        -0.00000000
  10         0.00002280
  11        -0.00000002
  12         0.00000000
  13        -0.99999997
  14        -0.00000000
  15         0.00000000
  16        -0.00023490
  17         0.00000000
  18        -0.00000000
  19         0.00005057
  20        -0.00000000
  21         0.00000000
  22        -0.00002347
  23         0.00000000
  24        -0.00000000
  25         0.00003968
  26         0.00000000
  27         0.00000000
  28         0.00000000
  29         0.00000000
  30         0.00000000
  31         0.00000000
  32         0.00000000
  33         0.00000000
  34         0.00000000
  35         0.00000000
  36         0.00000000
  37         0.00000000
  38         0.00000000
  39         0.00000000
  40         0.00000000
  41         0.00000000
  42         0.00000000
  43         0.00000000
  44         0.00000000
  45         0.00000000
  46         0.00000139
  47        -0.00000000
  48        -0.00000000
  49         0.00000000
  50         0.00000000
  51        -0.00000000
  52         0.00000000
  53         0.00000690
  54         0.00000000
  55        -0.00000000
  56         0.00000000
  57        -0.00000000
  58         0.00000000
  59         0.00000000
  60         0.00000000
  61         0.00000000
  62         0.00000000
  63         0.00000000
  64         0.00000000
  65         0.00000000
  66         0.00000000
  67         0.00000000
  68         0.00000000
Sym=     5au 
Ene=   -65.6810
Spin= Alpha
Occup=    2.00000
   1         0.00000000
   2         0.00000000
   3         0.00000000
   4         0.00000000
   5         0.00000000
   6         0.00000000
   7         0.00000000
   8        -0.00002230
   9        -0.00000042
  10         0.00000000
  11         0.99982497
  12         0.01870746
  13        -0.00000002
  14         0.00023567
  15         0.00000441
  16        -0.00000000
  17        -0.00005031
  18        -0.00000094
  19         0.00000000
  20         0.00002305
  21         0.00000043
  22        -0.00000000
  23        -0.00003881
  24        -0.00000073
  25         0.00000000
  26         0.00000000
  27         0.00000000
  28         0.00000000
  29         0.00000000
  30         0.00000000
  31         0.00000000
  32         0.00000000
  33         0.00000000
  34         0.00000000
  35         0.00000000
  36         0.00000000
  37         0.00000000
  38         0.00000000
  39         0.00000000
  40         0.00000000
  41         0.00000000
  42         0.00000000
  43         0.00000000
  44         0.00000000
  45         0.00000000
  46         0.00000000
  47        -0.00000109
  48        -0.00000002
  49         0.00000000
  50        -0.00000000
  51         0.00000000
  52        -0.00000000
  53         0.00000000
  54        -0.00000556
  55        -0.00000010
  56        -0.00000000
  57        -0.00000000
  58        -0.00000000
  59        -0.00000000
  60         0.00000000
  61         0.00000000
  62         0.00000000
  63         0.00000000
  64         0.00000000
  65         0.00000000
  66         0.00000000
  67         0.00000000
  68         0.00000000
Sym=     6au 
Ene=   -65.6810
Spin= Alpha
Occup=    2.00000
   1         0.00000000
   2         0.00000000
   3         0.00000000
   4         0.00000000
   5         0.00000000
   6         0.00000000
   7         0.00000000
   8         0.00000042
   9        -0.00002230
  10        -0.00000000
  11        -0.01870746
  12         0.99982497
  13         0.00000000
  14        -0.00000441
  15         0.00023567
  16         0.00000000
  17         0.00000094
  18        -0.00005031
  19        -0.00000000
  20        -0.00000043
  21         0.00002305
  22         0.00000000
  23         0.00000073
  24        -0.00003881
  25        -0.00000000
  26         0.00000000
  27         0.00000000
  28         0.00000000
  29         0.00000000
  30         0.00000000
  31         0.00000000
  32         0.00000000
  33         0.00000000
  34         0.00000000
  35         0.00000000
  36         0.00000000
  37         0.00000000
  38         0.00000000
  39         0.00000000
  40         0.00000000
  41         0.00000000
  42         0.00000000
  43         0.00000000
  44         0.00000000
  45         0.00000000
  46        -0.00000000
  47         0.00000002
  48        -0.00000109
  49        -0.00000000
  50        -0.00000000
  51        -0.00000000
  52        -0.00000000
  53        -0.00000000
  54         0.00000010
  55        -0.00000556
  56         0.00000000
  57        -0.00000000
  58         0.00000000
  59        -0.00000000
  60         0.00000000
  61         0.00000000
  62         0.00000000
  63         0.00000000
  64         0.00000000
  65         0.00000000
  66         0.00000000
  67         0.00000000
  68         0.00000000
Sym=     7au 
Ene=   -12.9570
Spin= Alpha
Occup=    2.00000
   1         0.00000000
   2         0.00000000
   3         0.00000000
   4         0.00000000
   5         0.00000000
   6         0.00000000
   7         0.00000000
   8        -0.00000000
   9         0.00000000
  10        -0.00001344
  11         0.00000000
  12        -0.00000000
  13         0.00023510
  14        -0.00000003
  15         0.00000000
  16        -0.99999558
  17         0.00000000
  18        -0.00000000
  19         0.00262321
  20        -0.00000000
  21         0.00000000
  22        -0.00094285
  23         0.00000000
  24        -0.00000000
  25         0.00100411
  26         0.00000000
  27         0.00000000
  28         0.00000000
  29         0.00000000
  30         0.00000000
  31         0.00000000
  32         0.00000000
  33         0.00000000
  34         0.00000000
  35         0.00000000
  36         0.00000000
  37         0.00000000
  38         0.00000000
  39         0.00000000
  40         0.00000000
  41         0.00000000
  42         0.00000000
  43         0.00000000
  44         0.00000000
  45         0.00000000
  46         0.00006300
  47        -0.00000000
  48        -0.00000000
  49         0.00000000
  50         0.00000000
  51        -0.00000000
  52        -0.00000000
  53         0.00005164
  54         0.00000000
  55        -0.00000000
  56         0.00000000
  57        -0.00000000
  58         0.00000000
  59         0.00000000
  60         0.00000000
  61         0.00000000
  62         0.00000000
  63         0.00000000
  64         0.00000000
  65         0.00000000
  66         0.00000000
  67         0.00000000
  68         0.00000000
Sym=     8au 
Ene=   -12.9560
Spin= Alpha
Occup=    2.00000
   1         0.00000000
   2         0.00000000
   3         0.00000000
   4         0.00000000
   5         0.00000000
   6         0.00000000
   7         0.00000000
   8        -0.00001331
   9        -0.00000006
  10         0.00000000
  11         0.00023589
  12         0.00000102
  13        -0.00000000
  14        -0.99998671
  15        -0.00431637
  16         0.00000003
  17         0.00248591
  18         0.00001073
  19        -0.00000000
  20        -0.00089189
  21        -0.00000385
  22         0.00000000
  23         0.00095207
  24         0.00000411
  25        -0.00000000
  26         0.00000000
  27         0.00000000
  28         0.00000000
  29         0.00000000
  30         0.00000000
  31         0.00000000
  32         0.00000000
  33         0.00000000
  34         0.00000000
  35         0.00000000
  36         0.00000000
  37         0.00000000
  38         0.00000000
  39         0.00000000
  40         0.00000000
  41         0.00000000
  42         0.00000000
  43         0.00000000
  44         0.00000000
  45         0.00000000
  46        -0.00000000
  47         0.00004880
  48         0.00000021
  49         0.00000000
  50         0.00000000
  51         0.00000000
  52         0.00000000
  53        -0.00000000
  54         0.00004170
  55         0.00000018
  56        -0.00000000
  57         0.00000000
  58        -0.00000000
  59         0.00000000
  60         0.00000000
  61         0.00000000
  62         0.00000000
  63         0.00000000
  64         0.00000000
  65         0.00000000
  66         0.00000000
  67         0.00000000
  68         0.00000000
Sym=     9au 
Ene=   -12.9560
Spin= Alpha
Occup=    2.00000
   1         0.00000000
   2         0.00000000
   3         0.00000000
   4         0.00000000
   5         0.00000000
   6         0.00000000
   7         0.00000000
   8         0.00000006
   9        -0.00001331
  10        -0.00000000
  11        -0.00000102
  12         0.00023589
  13         0.00000000
  14         0.00431637
  15        -0.99998671
  16        -0.00000000
  17        -0.00001073
  18         0.00248591
  19         0.00000000
  20         0.00000385
  21        -0.00089189
  22        -0.00000000
  23        -0.00000411
  24         0.00095207
  25         0.00000000
  26         0.00000000
  27         0.00000000
  28         0.00000000
  29         0.00000000
  30         0.00000000
  31         0.00000000
  32         0.00000000
  33         0.00000000
  34         0.00000000
  35         0.00000000
  36         0.00000000
  37         0.00000000
  38         0.00000000
  39         0.00000000
  40         0.00000000
  41         0.00000000
  42         0.00000000
  43         0.00000000
  44         0.00000000
  45         0.00000000
  46         0.00000000
  47        -0.00000021
  48         0.00004880
  49        -0.00000000
  50         0.00000000
  51        -0.00000000
  52         0.00000000
  53         0.00000000
  54        -0.00000018
  55         0.00004170
  56         0.00000000
  57         0.00000000
  58        -0.00000000
  59         0.00000000
  60         0.00000000
  61         0.00000000
  62         0.00000000
  63         0.00000000
  64         0.00000000
  65         0.00000000
  66         0.00000000
  67         0.00000000
  68         0.00000000
Sym=    10au 
Ene=    -1.8696
Spin= Alpha
Occup=    2.00000
   1         0.00000000
   2         0.00000000
   3         0.00000000
   4         0.00000000
   5         0.00000000
   6         0.00000000
   7         0.00000000
   8        -0.00000454
   9        -0.00000001
  10        -0.00000000
  11         0.00005133
  12         0.00000008
  13         0.00000000
  14         0.00254143
  15         0.00000405
  16         0.00000000
  17         0.99843650
  18         0.00159095
  19         0.00000000
  20        -0.05441136
  21        -0.00008670
  22        -0.00000000
  23         0.01167299
  24         0.00001860
  25         0.00000000
  26         0.00000000
  27         0.00000000
  28         0.00000000
  29         0.00000000
  30         0.00000000
  31         0.00000000
  32         0.00000000
  33         0.00000000
  34         0.00000000
  35         0.00000000
  36         0.00000000
  37         0.00000000
  38         0.00000000
  39         0.00000000
  40         0.00000000
  41         0.00000000
  42         0.00000000
  43         0.00000000
  44         0.00000000
  45         0.00000000
  46        -0.00000000
  47        -0.00363205
  48        -0.00000579
  49         0.00000000
  50        -0.00000000
  51         0.00000000
  52         0.00000000
  53        -0.00000000
  54        -0.00234464
  55        -0.00000374
  56         0.00000000
  57        -0.00000000
  58         0.00000000
  59         0.00000000
  60         0.00000000
  61         0.00000000
  62         0.00000000
  63         0.00000000
  64         0.00000000
  65         0.00000000
  66         0.00000000
  67         0.00000000
  68         0.00000000
Sym=    11au 
Ene=    -1.8696
Spin= Alpha
Occup=    2.00000
   1         0.00000000
   2         0.00000000
   3         0.00000000
   4         0.00000000
   5         0.00000000
   6         0.00000000
   7         0.00000000
   8        -0.00000001
   9         0.00000454
  10        -0.00000000
  11         0.00000008
  12        -0.00005133
  13         0.00000000
  14         0.00000405
  15        -0.00254143
  16         0.00000000
  17         0.00159095
  18        -0.99843650
  19         0.00000000
  20        -0.00008670
  21         0.05441136
  22        -0.00000000
  23         0.00001860
  24        -0.01167299
  25         0.00000000
  26         0.00000000
  27         0.00000000
  28         0.00000000
  29         0.00000000
  30         0.00000000
  31         0.00000000
  32         0.00000000
  33         0.00000000
  34         0.00000000
  35         0.00000000
  36         0.00000000
  37         0.00000000
  38         0.00000000
  39         0.00000000
  40         0.00000000
  41         0.00000000
  42         0.00000000
  43         0.00000000
  44         0.00000000
  45         0.00000000
  46        -0.00000000
  47        -0.00000579
  48         0.00363205
  49        -0.00000000
  50        -0.00000000
  51         0.00000000
  52         0.00000000
  53        -0.00000000
  54        -0.00000374
  55         0.00234464
  56         0.00000000
  57        -0.00000000
  58         0.00000000
  59        -0.00000000
  60         0.00000000
  61         0.00000000
  62         0.00000000
  63         0.00000000
  64         0.00000000
  65         0.00000000
  66         0.00000000
  67         0.00000000
  68         0.00000000
Sym=    12au 
Ene=    -1.8564
Spin= Alpha
Occup=    2.00000
   1         0.00000000
   2         0.00000000
   3         0.00000000
   4         0.00000000
   5         0.00000000
   6         0.00000000
   7         0.00000000
   8         0.00000000
   9        -0.00000000
  10        -0.00000456
  11        -0.00000000
  12         0.00000000
  13         0.00005177
  14        -0.00000000
  15         0.00000000
  16         0.00268865
  17        -0.00000000
  18         0.00000000
  19         0.99800983
  20         0.00000000
  21        -0.00000000
  22        -0.06122468
  23        -0.00000000
  24         0.00000000
  25         0.01338016
  26         0.00000000
  27         0.00000000
  28         0.00000000
  29         0.00000000
  30         0.00000000
  31         0.00000000
  32         0.00000000
  33         0.00000000
  34         0.00000000
  35         0.00000000
  36         0.00000000
  37         0.00000000
  38         0.00000000
  39         0.00000000
  40         0.00000000
  41         0.00000000
  42         0.00000000
  43         0.00000000
  44         0.00000000
  45         0.00000000
  46        -0.00537249
  47         0.00000000
  48        -0.00000000
  49         0.00000000
  50         0.00000000
  51        -0.00000000
  52        -0.00000000
  53        -0.00357693
  54         0.00000000
  55        -0.00000000
  56         0.00000000
  57        -0.00000000
  58        -0.00000000
  59        -0.00000000
  60         0.00000000
  61         0.00000000
  62         0.00000000
  63         0.00000000
  64         0.00000000
  65         0.00000000
  66         0.00000000
  67         0.00000000
  68         0.00000000
Sym=    13au 
Ene=    -0.9316
Spin= Alpha
Occup=    1.29580
   1         0.00000000
   2         0.00000000
   3         0.00000000
   4         0.00000000
   5         0.00000000
   6         0.00000000
   7         0.00000000
   8        -0.00000000
   9        -0.00000000
  10        -0.00000000
  11         0.00000000
  12         0.00000000
  13         0.00000000
  14        -0.00000000
  15         0.00000000
  16         0.00000000
  17         0.00000000
  18        -0.00000000
  19        -0.00000000
  20         0.00000000
  21         0.00000000
  22         0.00000000
  23        -0.00000000
  24        -0.00000000
  25        -0.00000000
  26         0.00000000
  27         0.00000000
  28         0.00000000
  29         0.00000000
  30         0.00000000
  31         0.00000000
  32         0.00000000
  33         0.00000000
  34         0.00000000
  35         0.00000000
  36         0.00000000
  37         0.00000000
  38         0.00000000
  39         0.00000000
  40         0.00000000
  41         0.00000000
  42         0.00000000
  43         0.00000000
  44         0.00000000
  45         0.00000000
  46        -0.00000000
  47        -0.00000000
  48        -0.00000000
  49         0.00000014
  50         0.00000000
  51        -0.99948411
  52        -0.00022094
  53         0.00000000
  54        -0.00000000
  55         0.00000000
  56        -0.00000000
  57        -0.00000000
  58         0.03211646
  59         0.00000710
  60         0.00000000
  61         0.00000000
  62         0.00000000
  63         0.00000000
  64         0.00000000
  65         0.00000000
  66         0.00000000
  67         0.00000000
  68         0.00000000
Sym=    14au 
Ene=    -0.9217
Spin= Alpha
Occup=    1.27939
   1         0.00000000
   2         0.00000000
   3         0.00000000
   4         0.00000000
   5         0.00000000
   6         0.00000000
   7         0.00000000
   8         0.00000000
   9         0.00000002
  10         0.00000000
  11         0.00000000
  12         0.00000111
  13         0.00000000
  14         0.00000012
  15         0.00005791
  16         0.00000000
  17         0.00000738
  18         0.00344120
  19         0.00000000
  20        -0.00000428
  21        -0.00199471
  22        -0.00000000
  23         0.00000061
  24         0.00028555
  25         0.00000000
  26         0.00000000
  27         0.00000000
  28         0.00000000
  29         0.00000000
  30         0.00000000
  31         0.00000000
  32         0.00000000
  33         0.00000000
  34         0.00000000
  35         0.00000000
  36         0.00000000
  37         0.00000000
  38         0.00000000
  39         0.00000000
  40         0.00000000
  41         0.00000000
  42         0.00000000
  43         0.00000000
  44         0.00000000
  45         0.00000000
  46         0.00000003
  47         0.00214457
  48         0.99937858
  49        -0.00000000
  50        -0.00000001
  51        -0.00000000
  52        -0.00000000
  53        -0.00000000
  54        -0.00007501
  55        -0.03495637
  56         0.00000000
  57         0.00000000
  58         0.00000000
  59         0.00000000
  60         0.00000000
  61         0.00000000
  62         0.00000000
  63         0.00000000
  64         0.00000000
  65         0.00000000
  66         0.00000000
  67         0.00000000
  68         0.00000000
Sym=    15au 
Ene=    -0.9198
Spin= Alpha
Occup=    1.27640
   1         0.00000000
   2         0.00000000
   3         0.00000000
   4         0.00000000
   5         0.00000000
   6         0.00000000
   7         0.00000000
   8        -0.00000000
   9        -0.00000000
  10         0.00000002
  11        -0.00000000
  12        -0.00000000
  13         0.00000148
  14        -0.00000000
  15        -0.00000000
  16         0.00007797
  17         0.00000000
  18        -0.00000000
  19         0.00502969
  20        -0.00000000
  21         0.00000000
  22        -0.00356293
  23         0.00000000
  24        -0.00000000
  25         0.00029339
  26         0.00000000
  27         0.00000000
  28         0.00000000
  29         0.00000000
  30         0.00000000
  31         0.00000000
  32         0.00000000
  33         0.00000000
  34         0.00000000
  35         0.00000000
  36         0.00000000
  37         0.00000000
  38         0.00000000
  39         0.00000000
  40         0.00000000
  41         0.00000000
  42         0.00000000
  43         0.00000000
  44         0.00000000
  45         0.00000000
  46         0.99935003
  47         0.00000002
  48        -0.00000003
  49         0.00000003
  50        -0.00000000
  51        -0.00000000
  52        -0.00000000
  53        -0.03551656
  54        -0.00000000
  55         0.00000000
  56        -0.00000000
  57         0.00000000
  58         0.00000000
  59         0.00000000
  60         0.00000000
  61         0.00000000
  62         0.00000000
  63         0.00000000
  64         0.00000000
  65         0.00000000
  66         0.00000000
  67         0.00000000
  68         0.00000000
Sym=    16au 
Ene=    -0.9217
Spin= Alpha
Occup=    1.27939
   1         0.00000000
   2         0.00000000
   3         0.00000000
   4         0.00000000
   5         0.00000000
   6         0.00000000
   7         0.00000000
   8         0.00000002
   9        -0.00000000
  10        -0.00000000
  11         0.00000111
  12        -0.00000000
  13        -0.00000000
  14         0.00005791
  15        -0.00000012
  16        -0.00000000
  17         0.00344120
  18        -0.00000738
  19        -0.00000000
  20        -0.00199471
  21         0.00000428
  22         0.00000000
  23         0.00028555
  24        -0.00000061
  25        -0.00000000
  26         0.00000000
  27         0.00000000
  28         0.00000000
  29         0.00000000
  30         0.00000000
  31         0.00000000
  32         0.00000000
  33         0.00000000
  34         0.00000000
  35         0.00000000
  36         0.00000000
  37         0.00000000
  38         0.00000000
  39         0.00000000
  40         0.00000000
  41         0.00000000
  42         0.00000000
  43         0.00000000
  44         0.00000000
  45         0.00000000
  46        -0.00000002
  47         0.99937858
  48        -0.00214457
  49        -0.00000002
  50         0.00000000
  51        -0.00000000
  52        -0.00000000
  53         0.00000000
  54        -0.03495637
  55         0.00007501
  56         0.00000000
  57        -0.00000000
  58         0.00000000
  59         0.00000000
  60         0.00000000
  61         0.00000000
  62         0.00000000
  63         0.00000000
  64         0.00000000
  65         0.00000000
  66         0.00000000
  67         0.00000000
  68         0.00000000
Sym=    17au 
Ene=    -0.9261
Spin= Alpha
Occup=    1.28661
   1         0.00000000
   2         0.00000000
   3         0.00000000
   4         0.00000000
   5         0.00000000
   6         0.00000000
   7         0.00000000
   8         0.00000000
   9         0.00000000
  10         0.00000000
  11        -0.00000000
  12         0.00000000
  13         0.00000000
  14        -0.00000000
  15         0.00000000
  16         0.00000000
  17        -0.00000000
  18         0.00000000
  19        -0.00000000
  20         0.00000000
  21        -0.00000000
  22         0.00000000
  23        -0.00000000
  24         0.00000000
  25        -0.00000000
  26         0.00000000
  27         0.00000000
  28         0.00000000
  29         0.00000000
  30         0.00000000
  31         0.00000000
  32         0.00000000
  33         0.00000000
  34         0.00000000
  35         0.00000000
  36         0.00000000
  37         0.00000000
  38         0.00000000
  39         0.00000000
  40         0.00000000
  41         0.00000000
  42         0.00000000
  43         0.00000000
  44         0.00000000
  45         0.00000000
  46        -0.00000000
  47        -0.00000000
  48         0.00000001
  49         0.02637394
  50         0.99908385
  51         0.00000000
  52        -0.00000003
  53         0.00000000
  54         0.00000000
  55        -0.00000000
  56        -0.00088938
  57        -0.03369090
  58        -0.00000000
  59         0.00000000
  60         0.00000000
  61         0.00000000
  62         0.00000000
  63         0.00000000
  64         0.00000000
  65         0.00000000
  66         0.00000000
  67         0.00000000
  68         0.00000000
Sym=    18au 
Ene=    -0.9316
Spin= Alpha
Occup=    1.29580
   1         0.00000000
   2         0.00000000
   3         0.00000000
   4         0.00000000
   5         0.00000000
   6         0.00000000
   7         0.00000000
   8        -0.00000000
   9         0.00000000
  10        -0.00000000
  11         0.00000000
  12         0.00000000
  13         0.00000000
  14         0.00000000
  15         0.00000000
  16         0.00000000
  17         0.00000000
  18         0.00000000
  19         0.00000000
  20         0.00000000
  21        -0.00000000
  22        -0.00000000
  23        -0.00000000
  24         0.00000000
  25         0.00000000
  26         0.00000000
  27         0.00000000
  28         0.00000000
  29         0.00000000
  30         0.00000000
  31         0.00000000
  32         0.00000000
  33         0.00000000
  34         0.00000000
  35         0.00000000
  36         0.00000000
  37         0.00000000
  38         0.00000000
  39         0.00000000
  40         0.00000000
  41         0.00000000
  42         0.00000000
  43         0.00000000
  44         0.00000000
  45         0.00000000
  46         0.00000000
  47         0.00000000
  48         0.00000000
  49         0.00000000
  50         0.00000003
  51        -0.00022094
  52         0.99948411
  53        -0.00000000
  54        -0.00000000
  55        -0.00000000
  56        -0.00000000
  57        -0.00000000
  58         0.00000710
  59        -0.03211646
  60         0.00000000
  61         0.00000000
  62         0.00000000
  63         0.00000000
  64         0.00000000
  65         0.00000000
  66         0.00000000
  67         0.00000000
  68         0.00000000
Sym=    19au 
Ene=    -0.9261
Spin= Alpha
Occup=    1.28661
   1         0.00000000
   2         0.00000000
   3         0.00000000
   4         0.00000000
   5         0.00000000
   6         0.00000000
   7         0.00000000
   8        -0.00000000
   9        -0.00000000
  10        -0.00000000
  11         0.00000000
  12        -0.00000000
  13        -0.00000000
  14        -0.00000000
  15        -0.00000000
  16         0.00000000
  17        -0.00000000
  18        -0.00000000
  19         0.00000000
  20         0.00000000
  21         0.00000000
  22        -0.00000000
  23        -0.00000000
  24        -0.00000000
  25         0.00000000
  26         0.00000000
  27         0.00000000
  28         0.00000000
  29         0.00000000
  30         0.00000000
  31         0.00000000
  32         0.00000000
  33         0.00000000
  34         0.00000000
  35         0.00000000
  36         0.00000000
  37         0.00000000
  38         0.00000000
  39         0.00000000
  40         0.00000000
  41         0.00000000
  42         0.00000000
  43         0.00000000
  44         0.00000000
  45         0.00000000
  46         0.00000003
  47        -0.00000002
  48        -0.00000000
  49        -0.99908385
  50         0.02637394
  51        -0.00000014
  52        -0.00000000
  53        -0.00000000
  54         0.00000000
  55         0.00000000
  56         0.03369090
  57        -0.00088938
  58         0.00000000
  59         0.00000000
  60         0.00000000
  61         0.00000000
  62         0.00000000
  63         0.00000000
  64         0.00000000
  65         0.00000000
  66         0.00000000
  67         0.00000000
  68         0.00000000
Sym=    20au 
Ene=    -0.2150
Spin= Alpha
Occup=    0.00000
   1         0.00000000
   2         0.00000000
   3         0.00000000
   4         0.00000000
   5         0.00000000
   6         0.00000000
   7         0.00000000
   8        -0.00000067
   9        -0.00000000
  10        -0.00000000
  11         0.00000824
  12         0.00000001
  13        -0.00000000
  14         0.00045518
  15         0.00000047
  16         0.00000000
  17        -0.04868353
  18        -0.00005055
  19        -0.00000000
  20        -0.95570026
  21        -0.00099230
  22        -0.00000000
  23        -0.29023543
  24        -0.00030135
  25        -0.00000000
  26         0.00000000
  27         0.00000000
  28         0.00000000
  29         0.00000000
  30         0.00000000
  31         0.00000000
  32         0.00000000
  33         0.00000000
  34         0.00000000
  35         0.00000000
  36         0.00000000
  37         0.00000000
  38         0.00000000
  39         0.00000000
  40         0.00000000
  41         0.00000000
  42         0.00000000
  43         0.00000000
  44         0.00000000
  45         0.00000000
  46         0.00000000
  47        -0.00147576
  48        -0.00000153
  49        -0.00000000
  50         0.00000000
  51        -0.00000000
  52         0.00000000
  53        -0.00000000
  54         0.00518158
  55         0.00000538
  56         0.00000000
  57        -0.00000000
  58         0.00000000
  59        -0.00000000
  60         0.00000000
  61         0.00000000
  62         0.00000000
  63         0.00000000
  64         0.00000000
  65         0.00000000
  66         0.00000000
  67         0.00000000
  68         0.00000000
Sym=    21au 
Ene=    -0.2150
Spin= Alpha
Occup=    0.00000
   1         0.00000000
   2         0.00000000
   3         0.00000000
   4         0.00000000
   5         0.00000000
   6         0.00000000
   7         0.00000000
   8         0.00000000
   9        -0.00000067
  10         0.00000000
  11        -0.00000001
  12         0.00000824
  13         0.00000000
  14        -0.00000047
  15         0.00045518
  16        -0.00000000
  17         0.00005055
  18        -0.04868353
  19         0.00000000
  20         0.00099230
  21        -0.95570026
  22         0.00000000
  23         0.00030135
  24        -0.29023543
  25         0.00000000
  26         0.00000000
  27         0.00000000
  28         0.00000000
  29         0.00000000
  30         0.00000000
  31         0.00000000
  32         0.00000000
  33         0.00000000
  34         0.00000000
  35         0.00000000
  36         0.00000000
  37         0.00000000
  38         0.00000000
  39         0.00000000
  40         0.00000000
  41         0.00000000
  42         0.00000000
  43         0.00000000
  44         0.00000000
  45         0.00000000
  46         0.00000000
  47         0.00000153
  48        -0.00147576
  49         0.00000000
  50        -0.00000000
  51         0.00000000
  52        -0.00000000
  53         0.00000000
  54        -0.00000538
  55         0.00518158
  56        -0.00000000
  57         0.00000000
  58        -0.00000000
  59         0.00000000
  60         0.00000000
  61         0.00000000
  62         0.00000000
  63         0.00000000
  64         0.00000000
  65         0.00000000
  66         0.00000000
  67         0.00000000
  68         0.00000000
Sym=    22au 
Ene=    -0.1129
Spin= Alpha
Occup=    0.00000
   1         0.00000000
   2         0.00000000
   3         0.00000000
   4         0.00000000
   5         0.00000000
   6         0.00000000
   7         0.00000000
   8        -0.00000000
   9        -0.00000000
  10         0.00000074
  11         0.00000000
  12         0.00000000
  13        -0.00000911
  14         0.00000000
  15        -0.00000000
  16        -0.00049314
  17         0.00000000
  18         0.00000000
  19         0.05538417
  20        -0.00000000
  21         0.00000000
  22         0.96180128
  23        -0.00000000
  24         0.00000000
  25         0.26778561
  26         0.00000000
  27         0.00000000
  28         0.00000000
  29         0.00000000
  30         0.00000000
  31         0.00000000
  32         0.00000000
  33         0.00000000
  34         0.00000000
  35         0.00000000
  36         0.00000000
  37         0.00000000
  38         0.00000000
  39         0.00000000
  40         0.00000000
  41         0.00000000
  42         0.00000000
  43         0.00000000
  44         0.00000000
  45         0.00000000
  46         0.00262983
  47         0.00000000
  48        -0.00000000
  49        -0.00000000
  50        -0.00000000
  51        -0.00000000
  52        -0.00000000
  53        -0.01243396
  54        -0.00000000
  55        -0.00000000
  56        -0.00000000
  57        -0.00000000
  58         0.00000000
  59        -0.00000000
  60         0.00000000
  61         0.00000000
  62         0.00000000
  63         0.00000000
  64         0.00000000
  65         0.00000000
  66         0.00000000
  67         0.00000000
  68         0.00000000
Sym=    23au 
Ene=     1.3974
Spin= Alpha
Occup=    0.00000
   1         0.00000000
   2         0.00000000
   3         0.00000000
   4         0.00000000
   5         0.00000000
   6         0.00000000
   7         0.00000000
   8         0.00000373
   9         0.00000001
  10         0.00000000
  11        -0.00004225
  12        -0.00000006
  13        -0.00000000
  14        -0.00110242
  15        -0.00000162
  16        -0.00000000
  17         0.02692029
  18         0.00003946
  19         0.00000000
  20         0.28914310
  21         0.00042378
  22         0.00000000
  23        -0.95683286
  24        -0.00140238
  25        -0.00000000
  26         0.00000000
  27         0.00000000
  28         0.00000000
  29         0.00000000
  30         0.00000000
  31         0.00000000
  32         0.00000000
  33         0.00000000
  34         0.00000000
  35         0.00000000
  36         0.00000000
  37         0.00000000
  38         0.00000000
  39         0.00000000
  40         0.00000000
  41         0.00000000
  42         0.00000000
  43         0.00000000
  44         0.00000000
  45         0.00000000
  46        -0.00000000
  47         0.00034555
  48         0.00000051
  49         0.00000000
  50         0.00000000
  51         0.00000000
  52        -0.00000000
  53         0.00000000
  54        -0.01178808
  55        -0.00001728
  56         0.00000000
  57         0.00000000
  58         0.00000000
  59        -0.00000000
  60         0.00000000
  61         0.00000000
  62         0.00000000
  63         0.00000000
  64         0.00000000
  65         0.00000000
  66         0.00000000
  67         0.00000000
  68         0.00000000
Sym=    24au 
Ene=     1.3974
Spin= Alpha
Occup=    0.00000
   1         0.00000000
   2         0.00000000
   3         0.00000000
   4         0.00000000
   5         0.00000000
   6         0.00000000
   7         0.00000000
   8         0.00000001
   9        -0.00000373
  10         0.00000000
  11        -0.00000006
  12         0.00004225
  13        -0.00000000
  14        -0.00000162
  15         0.00110242
  16        -0.00000000
  17         0.00003946
  18        -0.02692029
  19         0.00000000
  20         0.00042378
  21        -0.28914310
  22         0.00000000
  23        -0.00140238
  24         0.95683286
  25        -0.00000000
  26         0.00000000
  27         0.00000000
  28         0.00000000
  29         0.00000000
  30         0.00000000
  31         0.00000000
  32         0.00000000
  33         0.00000000
  34         0.00000000
  35         0.00000000
  36         0.00000000
  37         0.00000000
  38         0.00000000
  39         0.00000000
  40         0.00000000
  41         0.00000000
  42         0.00000000
  43         0.00000000
  44         0.00000000
  45         0.00000000
  46        -0.00000000
  47         0.00000051
  48        -0.00034555
  49        -0.00000000
  50        -0.00000000
  51         0.00000000
  52        -0.00000000
  53        -0.00000000
  54        -0.00001728
  55         0.01178808
  56        -0.00000000
  57         0.00000000
  58        -0.00000000
  59         0.00000000
  60         0.00000000
  61         0.00000000
  62         0.00000000
  63         0.00000000
  64         0.00000000
  65         0.00000000
  66         0.00000000
  67         0.00000000
  68         0.00000000
Sym=    25au 
Ene=     1.4374
Spin= Alpha
Occup=    0.00000
   1         0.00000000
   2         0.00000000
   3         0.00000000
   4         0.00000000
   5         0.00000000
   6         0.00000000
   7         0.00000000
   8        -0.00000000
   9         0.00000000
  10         0.00000372
  11         0.00000000
  12        -0.00000000
  13        -0.00004278
  14         0.00000000
  15        -0.00000000
  16        -0.00114221
  17        -0.00000000
  18         0.00000000
  19         0.02923976
  20        -0.00000000
  21         0.00000000
  22         0.26643499
  23         0.00000000
  24        -0.00000000
  25        -0.96337567
  26         0.00000000
  27         0.00000000
  28         0.00000000
  29         0.00000000
  30         0.00000000
  31         0.00000000
  32         0.00000000
  33         0.00000000
  34         0.00000000
  35         0.00000000
  36         0.00000000
  37         0.00000000
  38         0.00000000
  39         0.00000000
  40         0.00000000
  41         0.00000000
  42         0.00000000
  43         0.00000000
  44         0.00000000
  45         0.00000000
  46         0.00080400
  47         0.00000000
  48         0.00000000
  49        -0.00000000
  50        -0.00000000
  51        -0.00000000
  52        -0.00000000
  53        -0.00792542
  54        -0.00000000
  55         0.00000000
  56        -0.00000000
  57         0.00000000
  58         0.00000000
  59         0.00000000
  60         0.00000000
  61         0.00000000
  62         0.00000000
  63         0.00000000
  64         0.00000000
  65         0.00000000
  66         0.00000000
  67         0.00000000
  68         0.00000000
Sym=    26au 
Ene=     1.6970
Spin= Alpha
Occup=    0.00000
   1         0.00000000
   2         0.00000000
   3         0.00000000
   4         0.00000000
   5         0.00000000
   6         0.00000000
   7         0.00000000
   8         0.00000000
   9         0.00000000
  10        -0.00000000
  11        -0.00000000
  12        -0.00000000
  13         0.00000000
  14         0.00000000
  15         0.00000000
  16        -0.00000000
  17         0.00000000
  18         0.00000000
  19        -0.00000000
  20         0.00000000
  21         0.00000000
  22         0.00000000
  23        -0.00000000
  24        -0.00000000
  25        -0.00000000
  26         0.00000000
  27         0.00000000
  28         0.00000000
  29         0.00000000
  30         0.00000000
  31         0.00000000
  32         0.00000000
  33         0.00000000
  34         0.00000000
  35         0.00000000
  36         0.00000000
  37         0.00000000
  38         0.00000000
  39         0.00000000
  40         0.00000000
  41         0.00000000
  42         0.00000000
  43         0.00000000
  44         0.00000000
  45         0.00000000
  46        -0.00000000
  47         0.00000000
  48         0.00000000
  49         0.00000000
  50        -0.00000000
  51        -0.03211646
  52        -0.00000312
  53        -0.00000000
  54        -0.00000000
  55         0.00000000
  56         0.00000001
  57        -0.00000000
  58        -0.99948413
  59        -0.00009722
  60         0.00000000
  61         0.00000000
  62         0.00000000
  63         0.00000000
  64         0.00000000
  65         0.00000000
  66         0.00000000
  67         0.00000000
  68         0.00000000
Sym=    27au 
Ene=     1.6970
Spin= Alpha
Occup=    0.00000
   1         0.00000000
   2         0.00000000
   3         0.00000000
   4         0.00000000
   5         0.00000000
   6         0.00000000
   7         0.00000000
   8         0.00000000
   9         0.00000000
  10         0.00000000
  11         0.00000000
  12         0.00000000
  13        -0.00000000
  14         0.00000000
  15         0.00000000
  16        -0.00000000
  17        -0.00000000
  18        -0.00000000
  19        -0.00000000
  20        -0.00000000
  21         0.00000000
  22        -0.00000000
  23        -0.00000000
  24        -0.00000000
  25         0.00000000
  26         0.00000000
  27         0.00000000
  28         0.00000000
  29         0.00000000
  30         0.00000000
  31         0.00000000
  32         0.00000000
  33         0.00000000
  34         0.00000000
  35         0.00000000
  36         0.00000000
  37         0.00000000
  38         0.00000000
  39         0.00000000
  40         0.00000000
  41         0.00000000
  42         0.00000000
  43         0.00000000
  44         0.00000000
  45         0.00000000
  46        -0.00000000
  47        -0.00000000
  48        -0.00000000
  49        -0.00000000
  50         0.00000000
  51        -0.00000312
  52         0.03211646
  53        -0.00000000
  54        -0.00000000
  55        -0.00000000
  56        -0.00000000
  57         0.00000000
  58        -0.00009722
  59         0.99948413
  60         0.00000000
  61         0.00000000
  62         0.00000000
  63         0.00000000
  64         0.00000000
  65         0.00000000
  66         0.00000000
  67         0.00000000
  68         0.00000000
Sym=    28au 
Ene=     1.7053
Spin= Alpha
Occup=    0.00000
   1         0.00000000
   2         0.00000000
   3         0.00000000
   4         0.00000000
   5         0.00000000
   6         0.00000000
   7         0.00000000
   8         0.00000000
   9         0.00000000
  10        -0.00000000
  11        -0.00000000
  12         0.00000000
  13        -0.00000000
  14        -0.00000000
  15         0.00000000
  16        -0.00000000
  17        -0.00000000
  18         0.00000000
  19        -0.00000000
  20        -0.00000000
  21         0.00000000
  22        -0.00000000
  23         0.00000000
  24        -0.00000000
  25         0.00000000
  26         0.00000000
  27         0.00000000
  28         0.00000000
  29         0.00000000
  30         0.00000000
  31         0.00000000
  32         0.00000000
  33         0.00000000
  34         0.00000000
  35         0.00000000
  36         0.00000000
  37         0.00000000
  38         0.00000000
  39         0.00000000
  40         0.00000000
  41         0.00000000
  42         0.00000000
  43         0.00000000
  44         0.00000000
  45         0.00000000
  46        -0.00000000
  47        -0.00000000
  48         0.00000000
  49        -0.00015674
  50         0.03370228
  51        -0.00000000
  52        -0.00000000
  53        -0.00000000
  54        -0.00000000
  55         0.00000000
  56        -0.00464788
  57         0.99942110
  58        -0.00000000
  59        -0.00000000
  60         0.00000000
  61         0.00000000
  62         0.00000000
  63         0.00000000
  64         0.00000000
  65         0.00000000
  66         0.00000000
  67         0.00000000
  68         0.00000000
Sym=    29au 
Ene=     1.7053
Spin= Alpha
Occup=    0.00000
   1         0.00000000
   2         0.00000000
   3         0.00000000
   4         0.00000000
   5         0.00000000
   6         0.00000000
   7         0.00000000
   8         0.00000000
   9         0.00000000
  10         0.00000000
  11        -0.00000000
  12        -0.00000000
  13        -0.00000000
  14         0.00000000
  15        -0.00000000
  16        -0.00000000
  17         0.00000000
  18        -0.00000000
  19         0.00000000
  20         0.00000000
  21        -0.00000000
  22         0.00000000
  23        -0.00000000
  24         0.00000000
  25         0.00000000
  26         0.00000000
  27         0.00000000
  28         0.00000000
  29         0.00000000
  30         0.00000000
  31         0.00000000
  32         0.00000000
  33         0.00000000
  34         0.00000000
  35         0.00000000
  36         0.00000000
  37         0.00000000
  38         0.00000000
  39         0.00000000
  40         0.00000000
  41         0.00000000
  42         0.00000000
  43         0.00000000
  44         0.00000000
  45         0.00000000
  46         0.00000000
  47         0.00000000
  48        -0.00000000
  49        -0.03370228
  50        -0.00015674
  51        -0.00000000
  52         0.00000000
  53         0.00000000
  54         0.00000000
  55        -0.00000000
  56        -0.99942110
  57        -0.00464788
  58        -0.00000001
  59         0.00000000
  60         0.00000000
  61         0.00000000
  62         0.00000000
  63         0.00000000
  64         0.00000000
  65         0.00000000
  66         0.00000000
  67         0.00000000
  68         0.00000000
Sym=    30au 
Ene=     1.7130
Spin= Alpha
Occup=    0.00000
   1         0.00000000
   2         0.00000000
   3         0.00000000
   4         0.00000000
   5         0.00000000
   6         0.00000000
   7         0.00000000
   8         0.00000000
   9        -0.00000012
  10        -0.00000000
  11         0.00000001
  12        -0.00000517
  13        -0.00000000
  14         0.00000007
  15        -0.00003435
  16        -0.00000000
  17         0.00000652
  18        -0.00303288
  19        -0.00000000
  20         0.00001756
  21        -0.00816890
  22        -0.00000000
  23        -0.00002094
  24         0.00974482
  25         0.00000000
  26         0.00000000
  27         0.00000000
  28         0.00000000
  29         0.00000000
  30         0.00000000
  31         0.00000000
  32         0.00000000
  33         0.00000000
  34         0.00000000
  35         0.00000000
  36         0.00000000
  37         0.00000000
  38         0.00000000
  39         0.00000000
  40         0.00000000
  41         0.00000000
  42         0.00000000
  43         0.00000000
  44         0.00000000
  45         0.00000000
  46        -0.00000000
  47         0.00007514
  48        -0.03496229
  49         0.00000000
  50         0.00000000
  51        -0.00000000
  52        -0.00000000
  53        -0.00000000
  54         0.00214758
  55        -0.99930082
  56         0.00000000
  57         0.00000000
  58        -0.00000000
  59        -0.00000000
  60         0.00000000
  61         0.00000000
  62         0.00000000
  63         0.00000000
  64         0.00000000
  65         0.00000000
  66         0.00000000
  67         0.00000000
  68         0.00000000
Sym=    31au 
Ene=     1.7130
Spin= Alpha
Occup=    0.00000
   1         0.00000000
   2         0.00000000
   3         0.00000000
   4         0.00000000
   5         0.00000000
   6         0.00000000
   7         0.00000000
   8         0.00000012
   9         0.00000000
  10        -0.00000000
  11         0.00000517
  12         0.00000001
  13         0.00000000
  14         0.00003435
  15         0.00000007
  16         0.00000000
  17         0.00303288
  18         0.00000652
  19        -0.00000000
  20         0.00816890
  21         0.00001756
  22         0.00000000
  23        -0.00974482
  24        -0.00002094
  25        -0.00000000
  26         0.00000000
  27         0.00000000
  28         0.00000000
  29         0.00000000
  30         0.00000000
  31         0.00000000
  32         0.00000000
  33         0.00000000
  34         0.00000000
  35         0.00000000
  36         0.00000000
  37         0.00000000
  38         0.00000000
  39         0.00000000
  40         0.00000000
  41         0.00000000
  42         0.00000000
  43         0.00000000
  44         0.00000000
  45         0.00000000
  46        -0.00000000
  47         0.03496229
  48         0.00007514
  49         0.00000000
  50         0.00000000
  51        -0.00000000
  52         0.00000000
  53        -0.00000000
  54         0.99930082
  55         0.00214758
  56         0.00000000
  57         0.00000000
  58        -0.00000000
  59         0.00000000
  60         0.00000000
  61         0.00000000
  62         0.00000000
  63         0.00000000
  64         0.00000000
  65         0.00000000
  66         0.00000000
  67         0.00000000
  68         0.00000000
Sym=    32au 
Ene=     1.7177
Spin= Alpha
Occup=    0.00000
   1         0.00000000
   2         0.00000000
   3         0.00000000
   4         0.00000000
   5         0.00000000
   6         0.00000000
   7         0.00000000
   8         0.00000000
   9        -0.00000000
  10         0.00000012
  11        -0.00000000
  12        -0.00000000
  13         0.00000668
  14        -0.00000000
  15        -0.00000000
  16         0.00004888
  17         0.00000000
  18        -0.00000000
  19         0.00467218
  20        -0.00000000
  21        -0.00000000
  22         0.01373536
  23         0.00000000
  24         0.00000000
  25        -0.00425046
  26         0.00000000
  27         0.00000000
  28         0.00000000
  29         0.00000000
  30         0.00000000
  31         0.00000000
  32         0.00000000
  33         0.00000000
  34         0.00000000
  35         0.00000000
  36         0.00000000
  37         0.00000000
  38         0.00000000
  39         0.00000000
  40         0.00000000
  41         0.00000000
  42         0.00000000
  43         0.00000000
  44         0.00000000
  45         0.00000000
  46         0.03553984
  47         0.00000000
  48        -0.00000000
  49         0.00000000
  50         0.00000000
  51        -0.00000000
  52         0.00000000
  53         0.99925390
  54         0.00000000
  55        -0.00000000
  56         0.00000000
  57         0.00000000
  58        -0.00000000
  59         0.00000000
  60         0.00000000
  61         0.00000000
  62         0.00000000
  63         0.00000000
  64         0.00000000
  65         0.00000000
  66         0.00000000
  67         0.00000000
  68         0.00000000
